* SCIP STATISTICS
*   Problem name     : mknap_9
*   Variables        : 100 (100 binary, 0 integer, 0 implicit integer, 0 continuous)
*   Constraints      : 10
NAME          mknap_9
OBJSENSE
  MAX
ROWS
 N  Obj 
 L  c0 
 L  c1 
 L  c2 
 L  c3 
 L  c4 
 L  c5 
 L  c6 
 L  c7 
 L  c8 
 L  c9 
COLUMNS
    INTSTART  'MARKER'                            'INTORG'                           
    x0        Obj                            862  c5                             205 
    x0        c4                             652  c6                             721 
    x0        c3                             375  c7                              52 
    x0        c2                             784  c8                             731 
    x0        c1                             190  c9                             269 
    x0        c0                             912 
    x1        Obj                            623  c5                             357 
    x1        c4                             962  c6                             721 
    x1        c3                             486  c7                              95 
    x1        c2                             736  c8                             895 
    x1        c1                             885  c9                              51 
    x1        c0                             419 
    x2        c9                             785  c5                             794 
    x2        Obj                            714  c3                             112 
    x2        c1                             692  c4                             106 
    x2        c0                             317  c8                             578 
    x2        c7                              77  c2                             573 
    x2        c6                             520 
    x3        c9                             460  c8                             807 
    x3        c2                              91  c1                             485 
    x3        c6                             819  c7                             982 
    x3        c3                             924  Obj                            619 
    x3        c4                             665  c0                             687 
    x3        c5                             127 
    x4        c4                             185  c3                             819 
    x4        c0                             330  c6                             932 
    x4        Obj                           1000  c1                             401 
    x4        c7                             708  c2                             983 
    x4        c5                             782  c8                             375 
    x4        c9                              45 
    x5        c8                              32  c3                             797 
    x5        c1                             519  c5                             890 
    x5        c6                              10  c7                             143 
    x5        Obj                            703  c4                              64 
    x5        c0                             579  c9                             484 
    x5        c2                             482 
    x6        Obj                            953  c3                             246 
    x6        c8                             716  c4                             395 
    x6        c0                             864  c7                             729 
    x6        c5                             996  c9                             434 
    x6        c1                             909  c2                             929 
    x6        c6                             898 
    x7        c9                             311  c5                             640 
    x7        c1                             269  c7                             787 
    x7        c2                             571  c4                             617 
    x7        Obj                            661  c8                             951 
    x7        c0                             709  c3                             254 
    x7        c6                             978 
    x8        c5                             867  c7                             647 
    x8        c2                             161  c4                             631 
    x8        c1                             595  c6                             737 
    x8        c0                             771  c8                             740 
    x8        Obj                            782  c3                              63 
    x8        c9                             113 
    x9        c9                             771  c4                             474 
    x9        c8                             600  c6                             572 
    x9        c0                             281  Obj                            653 
    x9        c1                             936  c3                             491 
    x9        c7                             138  c5                             115 
    x9        c2                              41 
    x10       c9                             920  c3                              77 
    x10       Obj                            587  c4                             669 
    x10       c8                             201  c6                             771 
    x10       c0                             125  c5                              61 
    x10       c7                             765  c2                             449 
    x10       c1                             397 
    x11       c1                              45  c8                              35 
    x11       c0                             763  c9                             267 
    x11       c2                             317  c7                             943 
    x11       c3                             781  c6                             229 
    x11       c4                             438  c5                             117 
    x11       Obj                            406 
    x12       Obj                            685  c5                             808 
    x12       c3                             278  c1                             278 
    x12       c7                             243  c9                             298 
    x12       c8                             452  c0                             459 
    x12       c6                             501  c2                             590 
    x12       c4                             385 
    x13       c5                             558  c8                              40 
    x13       c3                             400  c7                               7 
    x13       c9                             725  c0                              63 
    x13       c1                              54  c6                             455 
    x13       c2                             901  c4                             834 
    x13       Obj                            450 
    x14       Obj                            829  c4                             464 
    x14       c5                             679  c6                             939 
    x14       c7                             856  c1                             241 
    x14       c2                             360  c0                             236 
    x14       c3                             465  c9                             293 
    x14       c8                             572 
    x15       c9                             298  c1                             367 
    x15       c2                             203  c7                              59 
    x15       c6                             981  c8                             642 
    x15       Obj                            605  c3                             549 
    x15       c0                             162  c5                              30 
    x15       c4                             792 
    x16       c3                             856  Obj                            880 
    x16       c5                             728  c9                             412 
    x16       c1                             823  c4                              66 
    x16       c7                             684  c6                             723 
    x16       c0                             153  c8                             200 
    x16       c2                             112 
    x17       c7                             143  c3                             455 
    x17       c9                             372  Obj                            861 
    x17       c4                             725  c2                             686 
    x17       c1                             496  c5                               8 
    x17       c6                             817  c0                             748 
    x17       c8                             179 
    x18       c8                             929  c1                             645 
    x18       c5                             894  c6                             655 
    x18       c0                             648  c3                             810 
    x18       c9                             307  Obj                            784 
    x18       c7                              44  c2                             882 
    x18       c4                             157 
    x19       Obj                            675  c5                             888 
    x19       c8                             162  c0                             507 
    x19       c9                             776  c2                             364 
    x19       c6                             312  c3                             906 
    x19       c4                             981  c7                             387 
    x19       c1                             210 
    x20       c1                             288  c7                             717 
    x20       c3                             110  c4                             120 
    x20       Obj                            621  c9                             758 
    x20       c8                             897  c0                             122 
    x20       c5                             572  c2                              22 
    x20       c6                              63 
    x21       c9                             470  c1                             131 
    x21       c2                             970  c4                             221 
    x21       Obj                            819  c5                             229 
    x21       c0                             106  c6                             743 
    x21       c3                             321  c8                             594 
    x21       c7                              34 
    x22       c8                             324  Obj                            515 
    x22       c0                             210  c1                             143 
    x22       c9                             687  c2                             756 
    x22       c5                             886  c7                             698 
    x22       c4                             399  c3                             710 
    x22       c6                              95 
    x23       c8                             735  c6                             496 
    x23       c0                             106  Obj                            986 
    x23       c9                             328  c1                             635 
    x23       c2                             340  c5                             849 
    x23       c7                             605  c4                             393 
    x23       c3                             698 
    x24       c3                             383  c0                             108 
    x24       c6                             528  c9                             609 
    x24       Obj                            695  c1                             859 
    x24       c7                             847  c2                             765 
    x24       c4                             406  c5                             453 
    x24       c8                             483 
    x25       c9                             596  c0                             550 
    x25       c3                             918  c1                             539 
    x25       c7                             128  c8                             664 
    x25       Obj                            781  c6                              34 
    x25       c5                             442  c4                             157 
    x25       c2                             538 
    x26       Obj                            506  c5                             597 
    x26       c9                             995  c2                              32 
    x26       c0                             504  c3                             868 
    x26       c7                             542  c8                             323 
    x26       c4                             102  c1                             300 
    x26       c6                             514 
    x27       c5                             169  c0                              11 
    x27       c3                             271  Obj                            525 
    x27       c7                             775  c6                             522 
    x27       c1                             181  c8                               1 
    x27       c9                             130  c4                             318 
    x27       c2                             926 
    x28       c1                             239  c9                             753 
    x28       Obj                            888  c7                             589 
    x28       c6                             168  c2                             451 
    x28       c3                             992  c8                             135 
    x28       c0                             721  c4                             256 
    x28       c5                             771 
    x29       c8                             236  c9                             987 
    x29       c7                             112  c6                              21 
    x29       c0                             490  Obj                            492 
    x29       c4                             238  c3                             135 
    x29       c2                             627  c5                             939 
    x29       c1                             656 
    x30       c0                              92  c6                             746 
    x30       c3                             581  c7                             171 
    x30       c1                             389  Obj                            707 
    x30       c4                             303  c8                             180 
    x30       c9                             518  c5                              16 
    x30       c2                             831 
    x31       c7                             387  c4                             581 
    x31       c1                             233  c2                             738 
    x31       c0                              30  Obj                            818 
    x31       c6                             841  c8                             575 
    x31       c3                             728  c5                             401 
    x31       c9                               6 
    x32       c7                             924  c3                             246 
    x32       c4                             804  c6                             611 
    x32       c2                             787  c1                             869 
    x32       c5                             369  c9                             205 
    x32       c8                             236  c0                             732 
    x32       Obj                            606 
    x33       c2                             181  c0                             274 
    x33       c8                             226  c1                             740 
    x33       c3                             301  c9                             901 
    x33       Obj                            857  c4                             828 
    x33       c7                             770  c6                             232 
    x33       c5                              27 
    x34       c4                             180  c6                             607 
    x34       c9                             588  c0                             772 
    x34       c3                             843  c5                             830 
    x34       c7                              84  c2                             637 
    x34       Obj                           1040  c1                             999 
    x34       c8                              78 
    x35       c4                              90  c5                             853 
    x35       c9                             215  c3                             884 
    x35       Obj                            716  c7                             836 
    x35       c8                             414  c2                             447 
    x35       c1                             987  c0                             777 
    x35       c6                             158 
    x36       c6                             104  c2                             736 
    x36       c1                               7  c9                              62 
    x36       c7                              43  c8                             602 
    x36       Obj                            541  c5                             471 
    x36       c4                              37  c3                             372 
    x36       c0                             788 
    x37       c4                             528  c9                              69 
    x37       c8                             257  c6                             206 
    x37       c2                             965  c1                             629 
    x37       Obj                            811  c5                             222 
    x37       c7                             886  c0                             353 
    x37       c3                             567 
    x38       c0                             660  Obj                            455 
    x38       c2                             267  c4                             108 
    x38       c1                             845  c6                              92 
    x38       c9                             446  c7                              55 
    x38       c8                             841  c5                             503 
    x38       c3                             639 
    x39       c8                             184  c6                             616 
    x39       Obj                            623  c0                             418 
    x39       c5                              40  c1                             898 
    x39       c7                             245  c2                             439 
    x39       c9                             775  c4                             473 
    x39       c3                              30 
    x40       c3                             290  c9                             681 
    x40       c7                             430  c1                             573 
    x40       c4                             310  c2                             442 
    x40       c6                             531  c0                             252 
    x40       c8                             463  c5                             413 
    x40       Obj                            539 
    x41       Obj                            675  c0                             833 
    x41       c8                              98  c7                             993 
    x41       c4                              68  c1                             967 
    x41       c6                             399  c5                             720 
    x41       c2                              35  c9                             628 
    x41       c3                             845 
    x42       c8                             996  c0                             277 
    x42       c9                             375  c5                             466 
    x42       c7                             530  Obj                            850 
    x42       c3                               3  c6                              99 
    x42       c2                             127  c1                             966 
    x42       c4                             227 
    x43       c1                             117  c8                             308 
    x43       c0                             401  c9                             743 
    x43       c6                             219  c3                             807 
    x43       c4                             892  Obj                            733 
    x43       c5                             364  c2                             253 
    x43       c7                             374 
    x44       c7                             377  Obj                            907 
    x44       c8                             822  c1                             975 
    x44       c2                              89  c0                             982 
    x44       c9                             741  c3                             731 
    x44       c6                             615  c4                             353 
    x44       c5                             519 
    x45       c5                             444  Obj                            505 
    x45       c1                             431  c2                             699 
    x45       c0                             748  c7                             667 
    x45       c4                             192  c9                             470 
    x45       c8                             333  c3                              72 
    x45       c6                             653 
    x46       c8                             922  c3                             412 
    x46       c6                             913  c5                              49 
    x46       c7                              59  c1                             574 
    x46       c2                             356  c9                             227 
    x46       c0                             980  c4                             120 
    x46       Obj                            730 
    x47       c3                             391  c1                             918 
    x47       c2                             471  c0                             999 
    x47       c4                             271  c6                             362 
    x47       c9                             731  c8                             817 
    x47       c5                             879  Obj                            875 
    x47       c7                             734 
    x48       c8                             587  Obj                            597 
    x48       c6                             332  c4                             277 
    x48       c2                             252  c9                             475 
    x48       c7                             375  c0                             547 
    x48       c5                             157  c3                             805 
    x48       c1                               2 
    x49       c5                             180  c7                             449 
    x49       c3                             598  c0                             973 
    x49       c1                             976  c8                             932 
    x49       c9                             251  c4                             255 
    x49       c2                              19  Obj                            700 
    x49       c6                             190 
    x50       c3                              77  c8                             412 
    x50       c9                             351  c4                              81 
    x50       c2                             185  c7                             513 
    x50       c5                             734  c6                             290 
    x50       Obj                            797  c0                             707 
    x50       c1                             581 
    x51       c6                             860  c8                             298 
    x51       c2                             347  c7                             215 
    x51       c4                             897  c1                             520 
    x51       c3                             505  c0                             777 
    x51       c9                             191  c5                             932 
    x51       Obj                           1007 
    x52       c3                             230  c8                             831 
    x52       c5                             544  c2                             184 
    x52       c7                             993  c6                             803 
    x52       c1                              82  c4                             593 
    x52       c0                             596  c9                             392 
    x52       Obj                            781 
    x53       c5                             708  c2                             153 
    x53       c6                             558  c0                             733 
    x53       c7                             730  c1                             318 
    x53       c4                             456  c3                              78 
    x53       Obj                            999  c9                             559 
    x53       c8                             844 
    x54       c1                             706  c8                             149 
    x54       c3                             796  c6                             691 
    x54       c5                             449  c0                             512 
    x54       c9                             977  Obj                            618 
    x54       c7                             316  c4                               7 
    x54       c2                             777 
    x55       c5                             390  c4                             378 
    x55       c9                             732  Obj                            943 
    x55       c6                             888  c0                             755 
    x55       c7                             404  c1                             392 
    x55       c2                             907  c8                             968 
    x55       c3                             769 
    x56       Obj                            852  c4                             756 
    x56       c3                              67  c5                             948 
    x56       c8                             803  c0                             421 
    x56       c2                              26  c9                             548 
    x56       c1                             979  c7                             165 
    x56       c6                             997 
    x57       c6                             682  c5                             949 
    x57       c9                             513  c1                             939 
    x57       c8                             686  Obj                           1106 
    x57       c2                             483  c3                             760 
    x57       c7                             916  c4                             206 
    x57       c0                             319 
    x58       c8                             368  c9                             158 
    x58       c0                             863  c4                             185 
    x58       Obj                            919  c3                             701 
    x58       c2                             360  c1                             237 
    x58       c5                             880  c6                             249 
    x58       c7                             621 
    x59       c5                              69  c3                             439 
    x59       c7                             747  c6                             824 
    x59       c9                             464  c1                             133 
    x59       c4                             853  c2                             121 
    x59       c8                             203  c0                             285 
    x59       Obj                            785 
    x60       c6                             893  c1                             304 
    x60       c5                              95  c9                             583 
    x60       c8                             687  c0                             518 
    x60       c2                              27  c4                             951 
    x60       Obj                            605  c7                             660 
    x60       c3                             560 
    x61       c6                             740  c5                             154 
    x61       c2                             539  Obj                            916 
    x61       c9                             260  c8                             474 
    x61       c7                             805  c4                             846 
    x61       c3                             522  c1                             820 
    x61       c0                             971 
    x62       c2                             897  c6                             797 
    x62       c9                             389  c0                             423 
    x62       c5                             325  c8                             658 
    x62       c7                             324  c4                             616 
    x62       Obj                            849  c1                             439 
    x62       c3                             480 
    x63       Obj                            950  c4                             429 
    x63       c6                             503  c7                             522 
    x63       c2                             592  c8                             966 
    x63       c5                             926  c3                             368 
    x63       c9                             329  c0                             741 
    x63       c1                             630 
    x64       c2                             310  c7                             705 
    x64       c5                             502  c6                              17 
    x64       c9                              97  c8                             559 
    x64       c1                             760  c0                             553 
    x64       c3                             799  Obj                            728 
    x64       c4                             473 
    x65       c4                             532  c8                             406 
    x65       Obj                            854  c2                             745 
    x65       c3                             873  c6                             634 
    x65       c5                             988  c7                             665 
    x65       c1                             411  c9                             391 
    x65       c0                             227 
    x66       Obj                            608  c2                             816 
    x66       c6                             156  c9                             839 
    x66       c3                             316  c1                              90 
    x66       c5                             431  c7                             637 
    x66       c0                             424  c4                             847 
    x66       c8                             919 
    x67       c8                             821  c3                             384 
    x67       c7                             747  c5                             652 
    x67       c2                             952  c9                             944 
    x67       Obj                            820  c1                             296 
    x67       c4                             671  c0                             410 
    x67       c6                             705 
    x68       c7                              10  Obj                            524 
    x68       c9                             535  c0                             323 
    x68       c1                             508  c2                             778 
    x68       c6                             243  c4                              17 
    x68       c5                             690  c8                              10 
    x68       c3                               1 
    x69       c7                             782  c3                             982 
    x69       c0                             159  c1                             283 
    x69       c4                             500  c8                             642 
    x69       c5                             214  c9                              44 
    x69       Obj                            838  c6                             317 
    x69       c2                             518 
    x70       c7                             562  c6                              32 
    x70       c3                             456  c5                             600 
    x70       c8                             461  c2                             579 
    x70       c9                             643  Obj                            724 
    x70       c4                             313  c0                             584 
    x70       c1                             936 
    x71       c4                             587  c8                             551 
    x71       c3                             146  c0                             212 
    x71       c1                             908  c7                              87 
    x71       c6                             311  Obj                            729 
    x71       c5                             897  c2                             559 
    x71       c9                             613 
    x72       c0                             651  c3                             837 
    x72       Obj                            811  c1                             481 
    x72       c8                             178  c7                             416 
    x72       c5                             477  c2                               8 
    x72       c6                             119  c4                             185 
    x72       c9                             932 
    x73       c7                             120  c2                             225 
    x73       Obj                            759  c9                             739 
    x73       c1                             741  c3                             284 
    x73       c5                              64  c8                             843 
    x73       c6                             658  c0                             560 
    x73       c4                             601 
    x74       c2                             214  c5                             889 
    x74       c7                             608  c6                             600 
    x74       c8                             954  c9                             268 
    x74       Obj                           1060  c0                             776 
    x74       c3                             957  c4                             728 
    x74       c1                             812 
    x75       c6                             959  c7                             267 
    x75       c5                             139  c9                             582 
    x75       c8                             235  c2                              32 
    x75       Obj                            513  c4                              66 
    x75       c1                             322  c3                             979 
    x75       c0                             204 
    x76       Obj                            472  c5                             831 
    x76       c7                             151  c4                             423 
    x76       c2                             364  c6                             685 
    x76       c0                             340  c8                             138 
    x76       c9                             645  c3                             156 
    x76       c1                             277 
    x77       c1                             534  c5                              20 
    x77       c8                             217  c2                             516 
    x77       Obj                            513  c4                             704 
    x77       c3                             635  c9                             220 
    x77       c7                             638  c0                             670 
    x77       c6                             827 
    x78       c3                             573  c4                             138 
    x78       c8                             486  Obj                            749 
    x78       c6                             391  c2                             682 
    x78       c0                             377  c7                              89 
    x78       c9                             521  c1                             523 
    x78       c5                             576 
    x79       c5                             398  c9                              23 
    x79       c4                             382  c1                             600 
    x79       c8                              52  c0                             248 
    x79       c2                             637  c3                             770 
    x79       c6                             166  Obj                            832 
    x79       c7                             358 
    x80       c7                               5  c2                             251 
    x80       c6                             572  Obj                            529 
    x80       c5                             791  c9                             370 
    x80       c8                             612  c3                             400 
    x80       c0                             746  c4                              10 
    x80       c1                             140 
    x81       c3                             439  c8                             346 
    x81       c6                             451  c4                             402 
    x81       c0                             427  c9                             455 
    x81       Obj                            642  c1                             772 
    x81       c5                             393  c7                             737 
    x81       c2                             476 
    x82       c2                             198  c1                             993 
    x82       c0                             742  c8                             168 
    x82       c9                             567  c6                             176 
    x82       c3                             122  c7                             812 
    x82       c5                             268  c4                             530 
    x82       Obj                            843 
    x83       Obj                            755  c3                             473 
    x83       c8                             629  c5                             293 
    x83       c4                             420  c1                             185 
    x83       c2                             468  c7                             430 
    x83       c6                             973  c0                             483 
    x83       c9                             904 
    x84       c2                             337  c5                              90 
    x84       c4                             782  c7                             962 
    x84       c6                             738  Obj                            680 
    x84       c9                             381  c0                             246 
    x84       c1                             808  c8                             870 
    x84       c3                             439 
    x85       c0                             564  c5                             859 
    x85       c3                             429  c6                             643 
    x85       c7                             256  c8                             378 
    x85       Obj                            864  c9                             891 
    x85       c1                             300  c2                             403 
    x85       c4                             156 
    x86       c7                             342  Obj                            902 
    x86       c0                             504  c4                             111 
    x86       c1                             395  c3                             534 
    x86       c6                             805  c2                             297 
    x86       c8                             530  c9                             497 
    x86       c5                             303 
    x87       c0                             149  c7                             518 
    x87       c6                             164  Obj                            484 
    x87       c2                              51  c9                             233 
    x87       c5                             128  c1                             669 
    x87       c4                             210  c3                             936 
    x87       c8                             235 
    x88       c2                             359  c1                             929 
    x88       c4                             200  c6                             862 
    x88       c5                             156  Obj                            693 
    x88       c3                              12  c8                             175 
    x88       c9                              44  c0                             313 
    x88       c7                             427 
    x89       c1                             133  c9                             840 
    x89       c2                             205  c7                             309 
    x89       c0                              67  c8                              56 
    x89       Obj                            703  c5                             143 
    x89       c6                             839  c4                             918 
    x89       c3                              82 
    x90       c7                             174  c3                             670 
    x90       Obj                            723  c6                             986 
    x90       c0                             988  c8                             300 
    x90       c1                             231  c2                             389 
    x90       c4                             358  c9                             347 
    x90       c5                             441 
    x91       c5                             517  c6                             577 
    x91       c0                             247  c4                            1000 
    x91       c7                             424  c2                             682 
    x91       c9                             374  c8                             701 
    x91       Obj                            998  c1                             732 
    x91       c3                             917 
    x92       c0                             250  c4                             145 
    x92       c1                               2  c9                             919 
    x92       c8                             493  c6                             130 
    x92       c3                             160  c5                             633 
    x92       Obj                            384  c2                             135 
    x92       c7                             286 
    x93       c0                             334  c8                             746 
    x93       Obj                            860  c9                             894 
    x93       c4                             381  c1                             154 
    x93       c5                             999  c3                             540 
    x93       c6                             208  c7                             156 
    x93       c2                              76 
    x94       c0                             677  c9                             897 
    x94       Obj                            893  c4                             272 
    x94       c8                             962  c1                             157 
    x94       c6                             388  c7                             244 
    x94       c3                             958  c5                             611 
    x94       c2                              43 
    x95       Obj                            840  c1                             987 
    x95       c3                             357  c9                             771 
    x95       c4                             889  c0                             109 
    x95       c6                             174  c5                             590 
    x95       c8                             516  c2                             157 
    x95       c7                             401 
    x96       c8                             340  c3                             130 
    x96       c9                             681  c5                             979 
    x96       c4                             819  c0                             984 
    x96       c6                             665  c7                             701 
    x96       c2                             144  Obj                            999 
    x96       c1                             184 
    x97       c1                             443  c3                             669 
    x97       c4                             960  c9                             274 
    x97       c6                             519  c7                             113 
    x97       c0                             716  Obj                            824 
    x97       c2                             420  c8                             236 
    x97       c5                             971 
    x98       c6                             504  Obj                            851 
    x98       c2                             981  c9                             842 
    x98       c5                             634  c0                             704 
    x98       c7                             888  c4                             227 
    x98       c8                             604  c1                             509 
    x98       c3                             802 
    x99       c3                             729  c4                             630 
    x99       c5                             702  c2                             558 
    x99       c8                             218  Obj                            628 
    x99       c0                             306  c7                             641 
    x99       c6                             534  c1                             114 
    x99       c9                             134 
    INTEND    'MARKER'                            'INTEND'                           
RHS
    RHS       c0                           12361  c1                           12726 
    RHS       c2                           11144  c3                           12748 
    RHS       c4                           10903  c5                           12837 
    RHS       c6                           13126  c7                           11631 
    RHS       c8                           12259  c9                           12402 
BOUNDS
 BV Bound     x0                                 
 BV Bound     x1                                 
 BV Bound     x2                                 
 BV Bound     x3                                 
 BV Bound     x4                                 
 BV Bound     x5                                 
 BV Bound     x6                                 
 BV Bound     x7                                 
 BV Bound     x8                                 
 BV Bound     x9                                 
 BV Bound     x10                                
 BV Bound     x11                                
 BV Bound     x12                                
 BV Bound     x13                                
 BV Bound     x14                                
 BV Bound     x15                                
 BV Bound     x16                                
 BV Bound     x17                                
 BV Bound     x18                                
 BV Bound     x19                                
 BV Bound     x20                                
 BV Bound     x21                                
 BV Bound     x22                                
 BV Bound     x23                                
 BV Bound     x24                                
 BV Bound     x25                                
 BV Bound     x26                                
 BV Bound     x27                                
 BV Bound     x28                                
 BV Bound     x29                                
 BV Bound     x30                                
 BV Bound     x31                                
 BV Bound     x32                                
 BV Bound     x33                                
 BV Bound     x34                                
 BV Bound     x35                                
 BV Bound     x36                                
 BV Bound     x37                                
 BV Bound     x38                                
 BV Bound     x39                                
 BV Bound     x40                                
 BV Bound     x41                                
 BV Bound     x42                                
 BV Bound     x43                                
 BV Bound     x44                                
 BV Bound     x45                                
 BV Bound     x46                                
 BV Bound     x47                                
 BV Bound     x48                                
 BV Bound     x49                                
 BV Bound     x50                                
 BV Bound     x51                                
 BV Bound     x52                                
 BV Bound     x53                                
 BV Bound     x54                                
 BV Bound     x55                                
 BV Bound     x56                                
 BV Bound     x57                                
 BV Bound     x58                                
 BV Bound     x59                                
 BV Bound     x60                                
 BV Bound     x61                                
 BV Bound     x62                                
 BV Bound     x63                                
 BV Bound     x64                                
 BV Bound     x65                                
 BV Bound     x66                                
 BV Bound     x67                                
 BV Bound     x68                                
 BV Bound     x69                                
 BV Bound     x70                                
 BV Bound     x71                                
 BV Bound     x72                                
 BV Bound     x73                                
 BV Bound     x74                                
 BV Bound     x75                                
 BV Bound     x76                                
 BV Bound     x77                                
 BV Bound     x78                                
 BV Bound     x79                                
 BV Bound     x80                                
 BV Bound     x81                                
 BV Bound     x82                                
 BV Bound     x83                                
 BV Bound     x84                                
 BV Bound     x85                                
 BV Bound     x86                                
 BV Bound     x87                                
 BV Bound     x88                                
 BV Bound     x89                                
 BV Bound     x90                                
 BV Bound     x91                                
 BV Bound     x92                                
 BV Bound     x93                                
 BV Bound     x94                                
 BV Bound     x95                                
 BV Bound     x96                                
 BV Bound     x97                                
 BV Bound     x98                                
 BV Bound     x99                                
ENDATA