* SCIP STATISTICS
*   Problem name     : mknap_20
*   Variables        : 100 (100 binary, 0 integer, 0 implicit integer, 0 continuous)
*   Constraints      : 10
NAME          mknap_20
OBJSENSE
  MAX
ROWS
 N  Obj 
 L  c0 
 L  c1 
 L  c2 
 L  c3 
 L  c4 
 L  c5 
 L  c6 
 L  c7 
 L  c8 
 L  c9 
COLUMNS
    INTSTART  'MARKER'                            'INTORG'                           
    x0        Obj                            942  c5                             201 
    x0        c4                             208  c6                             997 
    x0        c3                             943  c7                              85 
    x0        c2                             659  c8                             803 
    x0        c1                             277  c9                             714 
    x0        c0                             705 
    x1        Obj                            586  c5                             270 
    x1        c4                             310  c6                             477 
    x1        c3                             666  c7                             254 
    x1        c2                              70  c8                             788 
    x1        c1                             223  c9                             953 
    x1        c0                             792 
    x2        c9                             870  c5                             771 
    x2        Obj                            844  c3                             945 
    x2        c1                             619  c4                             233 
    x2        c0                             364  c8                              56 
    x2        c7                             611  c2                             162 
    x2        c6                             667 
    x3        c9                             401  c8                             518 
    x3        c2                             341  c1                             804 
    x3        c6                              71  c7                             490 
    x3        c3                             495  Obj                            896 
    x3        c4                             288  c0                             839 
    x3        c5                             351 
    x4        c4                             115  c3                              89 
    x4        c0                             560  c6                             935 
    x4        Obj                            496  c1                             831 
    x4        c7                             238  c2                             810 
    x4        c5                             452  c8                             258 
    x4        c9                             508 
    x5        c8                             426  c3                             713 
    x5        c1                             903  c5                             258 
    x5        c6                             445  c7                             277 
    x5        Obj                            650  c4                             132 
    x5        c0                             550  c9                             613 
    x5        c2                             680 
    x6        Obj                            477  c3                             469 
    x6        c8                             349  c4                              20 
    x6        c0                             116  c7                             619 
    x6        c5                             349  c9                             627 
    x6        c1                             805  c2                             816 
    x6        c6                             249 
    x7        c9                             447  c5                             457 
    x7        c1                             942  c7                             329 
    x7        c2                             859  c4                             734 
    x7        Obj                            998  c8                             790 
    x7        c0                             923  c3                             359 
    x7        c6                              81 
    x8        c5                             555  c7                             155 
    x8        c2                             404  c4                             666 
    x8        c1                             860  c6                             206 
    x8        c0                             494  c8                             879 
    x8        Obj                            634  c3                             587 
    x8        c9                             710 
    x9        c9                             470  c4                              53 
    x9        c8                               6  c6                             546 
    x9        c0                             467  Obj                            454 
    x9        c1                             807  c3                             656 
    x9        c7                             471  c5                              33 
    x9        c2                             251 
    x10       c9                             338  c3                             521 
    x10       Obj                            741  c4                             118 
    x10       c8                             310  c6                             755 
    x10       c0                             762  c5                             601 
    x10       c7                             900  c2                             547 
    x10       c1                             997 
    x11       c1                             706  c8                             364 
    x11       c0                             827  c9                             101 
    x11       c2                             863  c7                             391 
    x11       c3                              37  c6                             586 
    x11       c4                             475  c5                             135 
    x11       Obj                            884 
    x12       Obj                            807  c5                             341 
    x12       c3                             152  c1                              49 
    x12       c7                              93  c9                             233 
    x12       c8                             682  c0                             757 
    x12       c6                             485  c2                             151 
    x12       c4                             234 
    x13       c5                             419  c8                             670 
    x13       c3                             254  c7                             849 
    x13       c9                             416  c0                             526 
    x13       c1                             461  c6                             535 
    x13       c2                             124  c4                             514 
    x13       Obj                            745 
    x14       Obj                            517  c4                             132 
    x14       c5                             881  c6                              75 
    x14       c7                             700  c1                             858 
    x14       c2                             762  c0                             344 
    x14       c3                              47  c9                             687 
    x14       c8                              58 
    x15       c9                             613  c1                              81 
    x15       c2                             605  c7                             156 
    x15       c6                             853  c8                             930 
    x15       Obj                            834  c3                             212 
    x15       c0                             859  c5                             992 
    x15       c4                              90 
    x16       c3                             948  Obj                            935 
    x16       c5                              15  c9                             560 
    x16       c1                             104  c4                             881 
    x16       c7                             532  c6                             320 
    x16       c0                             599  c8                             354 
    x16       c2                             261 
    x17       c7                             510  c3                             631 
    x17       c9                             910  Obj                            532 
    x17       c4                             656  c2                             189 
    x17       c1                             438  c5                             153 
    x17       c6                             909  c0                              48 
    x17       c8                             734 
    x18       c8                             226  c1                             495 
    x18       c5                             691  c6                             317 
    x18       c0                             210  c3                             105 
    x18       c9                             628  Obj                            587 
    x18       c7                             408  c2                             478 
    x18       c4                             292 
    x19       Obj                            576  c5                             183 
    x19       c8                             127  c0                             732 
    x19       c9                             902  c2                             501 
    x19       c6                            1000  c3                             589 
    x19       c4                             300  c7                             417 
    x19       c1                             909 
    x20       c1                             114  c7                             187 
    x20       c3                             139  c4                             738 
    x20       Obj                            447  c9                             200 
    x20       c8                             726  c0                             126 
    x20       c5                             566  c2                             129 
    x20       c6                             621 
    x21       c9                             445  c1                             354 
    x21       c2                             986  c4                             807 
    x21       Obj                            750  c5                             355 
    x21       c0                             984  c6                             840 
    x21       c3                             185  c8                             726 
    x21       c7                             283 
    x22       c8                             920  Obj                            683 
    x22       c0                             969  c1                             941 
    x22       c9                             815  c2                             744 
    x22       c5                             562  c7                             671 
    x22       c4                             523  c3                             163 
    x22       c6                             524 
    x23       c8                             320  c6                             875 
    x23       c0                             782  Obj                            721 
    x23       c9                             971  c1                             381 
    x23       c2                             254  c5                             512 
    x23       c7                             898  c4                             749 
    x23       c3                             932 
    x24       c3                             334  c0                             743 
    x24       c6                             551  c9                             808 
    x24       Obj                            883  c1                             432 
    x24       c7                             714  c2                             195 
    x24       c4                             376  c5                             229 
    x24       c8                             412 
    x25       c9                             694  c0                             340 
    x25       c3                             367  c1                             658 
    x25       c7                             148  c8                             129 
    x25       Obj                            908  c6                             449 
    x25       c5                             755  c4                             524 
    x25       c2                             565 
    x26       Obj                            601  c5                             110 
    x26       c9                             571  c2                             553 
    x26       c0                             379  c3                             147 
    x26       c7                              80  c8                              54 
    x26       c4                             945  c1                             841 
    x26       c6                             333 
    x27       c5                             279  c0                             404 
    x27       c3                             976  Obj                            720 
    x27       c7                             779  c6                             823 
    x27       c1                             141  c8                             264 
    x27       c9                             266  c4                             122 
    x27       c2                             827 
    x28       c1                             504  c9                             588 
    x28       Obj                            719  c7                             817 
    x28       c6                             897  c2                             403 
    x28       c3                             133  c8                             153 
    x28       c0                             434  c4                             555 
    x28       c5                             100 
    x29       c8                             590  c9                              94 
    x29       c7                             779  c6                             930 
    x29       c0                              46  Obj                            750 
    x29       c4                             902  c3                             150 
    x29       c2                             418  c5                             782 
    x29       c1                              62 
    x30       c0                             380  c6                             709 
    x30       c3                             628  c7                             453 
    x30       c1                             163  Obj                            760 
    x30       c4                             367  c8                             847 
    x30       c9                             687  c5                             636 
    x30       c2                             403 
    x31       c7                             835  c4                             893 
    x31       c1                             127  c2                             952 
    x31       c0                             131  Obj                            731 
    x31       c6                             134  c8                              47 
    x31       c3                             633  c5                             773 
    x31       c9                             648 
    x32       c7                             980  c3                              24 
    x32       c4                             795  c6                             453 
    x32       c2                              62  c1                             768 
    x32       c5                             110  c9                             952 
    x32       c8                             229  c0                              59 
    x32       Obj                            524 
    x33       c2                             906  c0                             339 
    x33       c8                             785  c1                             633 
    x33       c3                             715  c9                             836 
    x33       Obj                            764  c4                             539 
    x33       c7                             988  c6                             739 
    x33       c5                             606 
    x34       c4                             652  c6                             155 
    x34       c9                             689  c0                             810 
    x34       c3                             989  c5                             437 
    x34       c7                             437  c2                             650 
    x34       Obj                            632  c1                              91 
    x34       c8                             926 
    x35       c4                             828  c5                              66 
    x35       c9                             604  c3                             878 
    x35       Obj                            595  c7                             443 
    x35       c8                             404  c2                             658 
    x35       c1                             819  c0                             952 
    x35       c6                             110 
    x36       c6                             258  c2                             516 
    x36       c1                             155  c9                              71 
    x36       c7                             291  c8                             899 
    x36       Obj                            557  c5                             433 
    x36       c4                             871  c3                             900 
    x36       c0                             710 
    x37       c4                             729  c9                              23 
    x37       c8                             856  c6                             655 
    x37       c2                             409  c1                             865 
    x37       Obj                            787  c5                             521 
    x37       c7                             465  c0                             698 
    x37       c3                              73 
    x38       c0                             580  Obj                            822 
    x38       c2                             170  c4                             162 
    x38       c1                             164  c6                             981 
    x38       c9                             984  c7                             322 
    x38       c8                             720  c5                             416 
    x38       c3                             334 
    x39       c8                             890  c6                             125 
    x39       Obj                            503  c0                              84 
    x39       c5                             257  c1                             255 
    x39       c7                              53  c2                             218 
    x39       c9                             322  c4                             382 
    x39       c3                             349 
    x40       c3                             925  c9                             826 
    x40       c7                              87  c1                             830 
    x40       c4                             172  c2                              54 
    x40       c6                              79  c0                             780 
    x40       c8                             804  c5                             947 
    x40       Obj                            958 
    x41       Obj                            695  c0                             497 
    x41       c8                             373  c7                             838 
    x41       c4                             804  c1                             519 
    x41       c6                             245  c5                              70 
    x41       c2                             974  c9                             854 
    x41       c3                             171 
    x42       c8                             530  c0                             272 
    x42       c9                             395  c5                             383 
    x42       c7                             551  Obj                            499 
    x42       c3                             275  c6                             731 
    x42       c2                             744  c1                             133 
    x42       c4                             444 
    x43       c1                              24  c8                             211 
    x43       c0                             688  c9                             324 
    x43       c6                             356  c3                             714 
    x43       c4                             419  Obj                            604 
    x43       c5                             590  c2                             368 
    x43       c7                             508 
    x44       c7                              84  Obj                            898 
    x44       c8                             918  c1                             898 
    x44       c2                             936  c0                             223 
    x44       c9                             255  c3                             159 
    x44       c6                             723  c4                             463 
    x44       c5                             505 
    x45       c5                             941  Obj                            974 
    x45       c1                             931  c2                             821 
    x45       c0                             830  c7                             892 
    x45       c4                             571  c9                             253 
    x45       c8                             606  c3                             438 
    x45       c6                              71 
    x46       c8                             121  c3                              23 
    x46       c6                             134  c5                             586 
    x46       c7                             343  c1                             364 
    x46       c2                             200  c9                             573 
    x46       c0                             367  c4                             276 
    x46       Obj                            744 
    x47       c3                             412  c1                             660 
    x47       c2                             823  c0                            1000 
    x47       c4                             461  c6                             219 
    x47       c9                               8  c8                             448 
    x47       c5                             352  Obj                            706 
    x47       c7                             152 
    x48       c8                             327  Obj                            610 
    x48       c6                             824  c4                             249 
    x48       c2                             490  c9                             863 
    x48       c7                             553  c0                             447 
    x48       c5                             399  c3                             141 
    x48       c1                              23 
    x49       c5                              92  c7                             614 
    x49       c3                             740  c0                             336 
    x49       c1                             885  c8                             717 
    x49       c9                             482  c4                             464 
    x49       c2                             669  Obj                            747 
    x49       c6                             269 
    x50       c3                             322  c8                             590 
    x50       c9                               6  c4                             966 
    x50       c2                             586  c7                             629 
    x50       c5                             918  c6                             727 
    x50       Obj                            949  c0                             785 
    x50       c1                             322 
    x51       c6                             584  c8                             852 
    x51       c2                             869  c7                             414 
    x51       c4                             986  c1                              60 
    x51       c3                             186  c0                             745 
    x51       c9                             316  c5                             446 
    x51       Obj                            762 
    x52       c3                             598  c8                              60 
    x52       c5                             471  c2                             774 
    x52       c7                             112  c6                             682 
    x52       c1                             261  c4                               5 
    x52       c0                             227  c9                             941 
    x52       Obj                            752 
    x53       c5                             360  c2                             714 
    x53       c6                             263  c0                             820 
    x53       c7                             957  c1                             451 
    x53       c4                             523  c3                             968 
    x53       Obj                            871  c9                             523 
    x53       c8                             840 
    x54       c1                             212  c8                              46 
    x54       c3                             598  c6                             759 
    x54       c5                             634  c0                             823 
    x54       c9                              56  Obj                            872 
    x54       c7                             551  c4                             149 
    x54       c2                             683 
    x55       c5                             156  c4                             134 
    x55       c9                             106  Obj                            840 
    x55       c6                             719  c0                             370 
    x55       c7                             401  c1                             557 
    x55       c2                             342  c8                             172 
    x55       c3                             481 
    x56       Obj                            837  c4                              82 
    x56       c3                             507  c5                             178 
    x56       c8                              55  c0                             711 
    x56       c2                             609  c9                             359 
    x56       c1                             610  c7                             789 
    x56       c6                             403 
    x57       c6                             349  c5                             490 
    x57       c9                              86  c1                             414 
    x57       c8                             408  Obj                            817 
    x57       c2                             699  c3                               5 
    x57       c7                             452  c4                             725 
    x57       c0                             598 
    x58       c8                             418  c9                             510 
    x58       c0                             325  c4                             593 
    x58       Obj                            443  c3                              37 
    x58       c2                             325  c1                             550 
    x58       c5                              79  c6                             322 
    x58       c7                             874 
    x59       c5                             914  c3                             658 
    x59       c7                             195  c6                              48 
    x59       c9                             667  c1                             329 
    x59       c4                              27  c2                             269 
    x59       c8                             590  c0                              61 
    x59       Obj                            551 
    x60       c6                             788  c1                             482 
    x60       c5                              64  c9                             214 
    x60       c8                              20  c0                             280 
    x60       c2                             170  c4                             601 
    x60       Obj                            765  c7                             697 
    x60       c3                             249 
    x61       c6                             839  c5                             365 
    x61       c2                             730  Obj                            724 
    x61       c9                             501  c8                             410 
    x61       c7                             739  c4                             245 
    x61       c3                              20  c1                             843 
    x61       c0                             310 
    x62       c2                             821  c6                              26 
    x62       c9                             988  c0                              76 
    x62       c5                             110  c8                             899 
    x62       c7                              36  c4                             494 
    x62       Obj                            575  c1                             632 
    x62       c3                             315 
    x63       Obj                            678  c4                             216 
    x63       c6                             892  c7                             114 
    x63       c2                             451  c8                             372 
    x63       c5                             697  c3                             261 
    x63       c9                             757  c0                             906 
    x63       c1                             992 
    x64       c2                             172  c7                             732 
    x64       c5                             247  c6                             883 
    x64       c9                             854  c8                             483 
    x64       c1                             642  c0                             416 
    x64       c3                             735  Obj                            884 
    x64       c4                              30 
    x65       c4                             949  c8                             688 
    x65       Obj                           1017  c2                             141 
    x65       c3                             801  c6                              83 
    x65       c5                             145  c7                             955 
    x65       c1                             906  c9                             343 
    x65       c0                             286 
    x66       Obj                            620  c2                             624 
    x66       c6                              69  c9                             550 
    x66       c3                             330  c1                               6 
    x66       c5                             535  c7                             867 
    x66       c0                             888  c4                             771 
    x66       c8                             596 
    x67       c8                              63  c3                             128 
    x67       c7                             571  c5                              53 
    x67       c2                             739  c9                             492 
    x67       Obj                            405  c1                             768 
    x67       c4                             923  c0                              31 
    x67       c6                             133 
    x68       c7                             421  Obj                            715 
    x68       c9                             981  c0                             794 
    x68       c1                             354  c2                              51 
    x68       c6                             127  c4                             278 
    x68       c5                             700  c8                             963 
    x68       c3                              78 
    x69       c7                             622  c3                             445 
    x69       c0                              61  c1                              80 
    x69       c4                             226  c8                             485 
    x69       c5                             874  c9                             112 
    x69       Obj                            546  c6                             794 
    x69       c2                             679 
    x70       c7                              89  c6                             221 
    x70       c3                             273  c5                             860 
    x70       c8                             789  c2                             717 
    x70       c9                               2  Obj                            799 
    x70       c4                             231  c0                             590 
    x70       c1                             224 
    x71       c4                             134  c8                             291 
    x71       c3                             582  c0                             297 
    x71       c1                             780  c7                             679 
    x71       c6                             280  Obj                            657 
    x71       c5                             312  c2                             515 
    x71       c9                             938 
    x72       c0                             836  c3                             219 
    x72       Obj                            674  c1                             710 
    x72       c8                             331  c7                             617 
    x72       c5                             220  c2                             288 
    x72       c6                              76  c4                             309 
    x72       c9                             659 
    x73       c7                             189  c2                             829 
    x73       Obj                            757  c9                             916 
    x73       c1                             253  c3                             794 
    x73       c5                              13  c8                             706 
    x73       c6                             105  c0                             765 
    x73       c4                             782 
    x74       c2                               1  c5                             266 
    x74       c7                             476  c6                             803 
    x74       c8                              99  c9                              77 
    x74       Obj                            294  c0                             236 
    x74       c3                             140  c4                             100 
    x74       c1                              46 
    x75       c6                             628  c7                             559 
    x75       c5                             412  c9                             366 
    x75       c8                             295  c2                             971 
    x75       Obj                            823  c4                             522 
    x75       c1                             136  c3                             648 
    x75       c0                             145 
    x76       Obj                            568  c5                             802 
    x76       c7                             196  c4                             788 
    x76       c2                              92  c6                              79 
    x76       c0                             791  c8                             807 
    x76       c9                             861  c3                             406 
    x76       c1                              43 
    x77       c1                              13  c5                             639 
    x77       c8                             363  c2                              41 
    x77       Obj                            474  c4                             717 
    x77       c3                             808  c9                             390 
    x77       c7                              14  c0                             612 
    x77       c6                             815 
    x78       c3                             890  c4                             568 
    x78       c8                             633  Obj                            696 
    x78       c6                             732  c2                             621 
    x78       c0                             438  c7                              95 
    x78       c9                             535  c1                             218 
    x78       c5                             259 
    x79       c5                             910  c9                             229 
    x79       c4                             934  c1                             129 
    x79       c8                             385  c0                             575 
    x79       c2                             234  c3                             380 
    x79       c6                             471  Obj                            748 
    x79       c7                             816 
    x80       c7                              42  c2                              62 
    x80       c6                             697  Obj                            736 
    x80       c5                             607  c9                             745 
    x80       c8                             220  c3                             527 
    x80       c0                             568  c4                             789 
    x80       c1                             378 
    x81       c3                             330  c8                             376 
    x81       c6                             948  c4                             593 
    x81       c0                             844  c9                              26 
    x81       Obj                            675  c1                             247 
    x81       c5                             741  c7                             891 
    x81       c2                             193 
    x82       c2                             215  c1                             458 
    x82       c0                             531  c8                             556 
    x82       c9                             598  c6                             847 
    x82       c3                             425  c7                             811 
    x82       c5                             939  c4                             551 
    x82       Obj                            776 
    x83       Obj                            933  c3                             479 
    x83       c8                             475  c5                             795 
    x83       c4                             270  c1                             356 
    x83       c2                             245  c7                             287 
    x83       c6                             668  c0                             840 
    x83       c9                             211 
    x84       c2                             821  c5                             794 
    x84       c4                             375  c7                             789 
    x84       c6                             676  Obj                            680 
    x84       c9                             537  c0                             708 
    x84       c1                             118  c8                             660 
    x84       c3                             998 
    x85       c0                             939  c5                              51 
    x85       c3                             272  c6                             724 
    x85       c7                             347  c8                             749 
    x85       Obj                            683  c9                              84 
    x85       c1                             271  c2                              60 
    x85       c4                             662 
    x86       c7                             403  Obj                            545 
    x86       c0                             772  c4                             211 
    x86       c1                             404  c3                             193 
    x86       c6                             387  c2                             700 
    x86       c8                             186  c9                              58 
    x86       c5                             785 
    x87       c0                             375  c7                              43 
    x87       c6                             911  Obj                            656 
    x87       c2                             198  c9                             344 
    x87       c5                             764  c1                             685 
    x87       c4                             892  c3                             427 
    x87       c8                             272 
    x88       c2                             532  c1                             509 
    x88       c4                             983  c6                             103 
    x88       c5                             637  Obj                            868 
    x88       c3                             247  c8                               8 
    x88       c9                             456  c0                             254 
    x88       c7                             932 
    x89       c1                             899  c9                             239 
    x89       c2                             914  c7                             815 
    x89       c0                              83  c8                             745 
    x89       Obj                            515  c5                             334 
    x89       c6                              62  c4                              37 
    x89       c3                             754 
    x90       c7                             706  c3                             227 
    x90       Obj                            869  c6                             187 
    x90       c0                             200  c8                             720 
    x90       c1                             217  c2                             344 
    x90       c4                             295  c9                             405 
    x90       c5                             865 
    x91       c5                             457  c6                             820 
    x91       c0                             477  c4                             295 
    x91       c7                             181  c2                             310 
    x91       c9                             683  c8                             245 
    x91       Obj                            719  c1                             676 
    x91       c3                             249 
    x92       c0                             120  c4                             148 
    x92       c1                             496  c9                             989 
    x92       c8                             145  c6                             193 
    x92       c3                             135  c5                             235 
    x92       Obj                            814  c2                             312 
    x92       c7                             376 
    x93       c0                             391  c8                             535 
    x93       Obj                            675  c9                             853 
    x93       c4                             513  c1                             160 
    x93       c5                             985  c3                             553 
    x93       c6                             584  c7                             229 
    x93       c2                             817 
    x94       c0                              64  c9                             921 
    x94       Obj                            319  c4                              14 
    x94       c8                              29  c1                             508 
    x94       c6                             326  c7                              36 
    x94       c3                             335  c5                             436 
    x94       c2                              91 
    x95       Obj                           1012  c1                             822 
    x95       c3                             822  c9                             544 
    x95       c4                             486  c0                             784 
    x95       c6                             555  c5                             975 
    x95       c8                             519  c2                             179 
    x95       c7                             113 
    x96       c8                             805  c3                             818 
    x96       c9                             363  c5                             458 
    x96       c4                              97  c0                             138 
    x96       c6                              95  c7                             870 
    x96       c2                             355  Obj                            651 
    x96       c1                             346 
    x97       c1                             362  c3                             837 
    x97       c4                             979  c9                             386 
    x97       c6                             254  c7                             748 
    x97       c0                              50  Obj                            804 
    x97       c2                             414  c8                             654 
    x97       c5                             504 
    x98       c6                             488  Obj                            870 
    x98       c2                              51  c9                             943 
    x98       c5                             782  c0                             838 
    x98       c7                             951  c4                              22 
    x98       c8                             298  c1                              11 
    x98       c3                             864 
    x99       c3                             149  c4                             347 
    x99       c5                             833  c2                             488 
    x99       c8                             584  Obj                            682 
    x99       c0                             380  c7                             977 
    x99       c6                             668  c1                             353 
    x99       c9                             937 
    INTEND    'MARKER'                            'INTEND'                           
RHS
    RHS       c0                           38264  c1                           34652 
    RHS       c2                           35766  c3                           33726 
    RHS       c4                           34350  c5                           35688 
    RHS       c6                           36911  c7                           36851 
    RHS       c8                           35828  c9                           39344 
BOUNDS
 BV Bound     x0                                 
 BV Bound     x1                                 
 BV Bound     x2                                 
 BV Bound     x3                                 
 BV Bound     x4                                 
 BV Bound     x5                                 
 BV Bound     x6                                 
 BV Bound     x7                                 
 BV Bound     x8                                 
 BV Bound     x9                                 
 BV Bound     x10                                
 BV Bound     x11                                
 BV Bound     x12                                
 BV Bound     x13                                
 BV Bound     x14                                
 BV Bound     x15                                
 BV Bound     x16                                
 BV Bound     x17                                
 BV Bound     x18                                
 BV Bound     x19                                
 BV Bound     x20                                
 BV Bound     x21                                
 BV Bound     x22                                
 BV Bound     x23                                
 BV Bound     x24                                
 BV Bound     x25                                
 BV Bound     x26                                
 BV Bound     x27                                
 BV Bound     x28                                
 BV Bound     x29                                
 BV Bound     x30                                
 BV Bound     x31                                
 BV Bound     x32                                
 BV Bound     x33                                
 BV Bound     x34                                
 BV Bound     x35                                
 BV Bound     x36                                
 BV Bound     x37                                
 BV Bound     x38                                
 BV Bound     x39                                
 BV Bound     x40                                
 BV Bound     x41                                
 BV Bound     x42                                
 BV Bound     x43                                
 BV Bound     x44                                
 BV Bound     x45                                
 BV Bound     x46                                
 BV Bound     x47                                
 BV Bound     x48                                
 BV Bound     x49                                
 BV Bound     x50                                
 BV Bound     x51                                
 BV Bound     x52                                
 BV Bound     x53                                
 BV Bound     x54                                
 BV Bound     x55                                
 BV Bound     x56                                
 BV Bound     x57                                
 BV Bound     x58                                
 BV Bound     x59                                
 BV Bound     x60                                
 BV Bound     x61                                
 BV Bound     x62                                
 BV Bound     x63                                
 BV Bound     x64                                
 BV Bound     x65                                
 BV Bound     x66                                
 BV Bound     x67                                
 BV Bound     x68                                
 BV Bound     x69                                
 BV Bound     x70                                
 BV Bound     x71                                
 BV Bound     x72                                
 BV Bound     x73                                
 BV Bound     x74                                
 BV Bound     x75                                
 BV Bound     x76                                
 BV Bound     x77                                
 BV Bound     x78                                
 BV Bound     x79                                
 BV Bound     x80                                
 BV Bound     x81                                
 BV Bound     x82                                
 BV Bound     x83                                
 BV Bound     x84                                
 BV Bound     x85                                
 BV Bound     x86                                
 BV Bound     x87                                
 BV Bound     x88                                
 BV Bound     x89                                
 BV Bound     x90                                
 BV Bound     x91                                
 BV Bound     x92                                
 BV Bound     x93                                
 BV Bound     x94                                
 BV Bound     x95                                
 BV Bound     x96                                
 BV Bound     x97                                
 BV Bound     x98                                
 BV Bound     x99                                
ENDATA