* SCIP STATISTICS
*   Problem name     : mknap_26
*   Variables        : 100 (100 binary, 0 integer, 0 implicit integer, 0 continuous)
*   Constraints      : 10
NAME          mknap_26
OBJSENSE
  MAX
ROWS
 N  Obj 
 L  c0 
 L  c1 
 L  c2 
 L  c3 
 L  c4 
 L  c5 
 L  c6 
 L  c7 
 L  c8 
 L  c9 
COLUMNS
    INTSTART  'MARKER'                            'INTORG'                           
    x0        Obj                            909  c5                             162 
    x0        c4                             157  c6                             783 
    x0        c3                             255  c7                             721 
    x0        c2                             696  c8                             889 
    x0        c1                             819  c9                             512 
    x0        c0                             622 
    x1        Obj                            366  c5                             538 
    x1        c4                             281  c6                              61 
    x1        c3                             659  c7                             631 
    x1        c2                             506  c8                             121 
    x1        c1                             236  c9                             102 
    x1        c0                             349 
    x2        c9                             800  c5                              40 
    x2        Obj                            893  c3                             354 
    x2        c1                             407  c4                             387 
    x2        c0                             416  c8                             942 
    x2        c7                             412  c2                             506 
    x2        c6                             820 
    x3        c9                             902  c8                             124 
    x3        c2                             495  c1                             891 
    x3        c6                             513  c7                             970 
    x3        c3                              33  Obj                            696 
    x3        c4                             890  c0                             612 
    x3        c5                             357 
    x4        c4                             715  c3                             771 
    x4        c0                             334  c6                             249 
    x4        Obj                            568  c1                             161 
    x4        c7                             136  c2                             889 
    x4        c5                             674  c8                              86 
    x4        c9                             319 
    x5        c8                             877  c3                             904 
    x5        c1                             406  c5                             232 
    x5        c6                             562  c7                             225 
    x5        Obj                           1054  c4                             970 
    x5        c0                             747  c9                             918 
    x5        c2                             314 
    x6        Obj                            939  c3                             617 
    x6        c8                             111  c4                             105 
    x6        c0                             114  c7                             666 
    x6        c5                             666  c9                             918 
    x6        c1                             866  c2                             135 
    x6        c6                             262 
    x7        c9                             433  c5                             257 
    x7        c1                               3  c7                             379 
    x7        c2                             109  c4                             594 
    x7        Obj                            808  c8                             147 
    x7        c0                             516  c3                             914 
    x7        c6                             933 
    x8        c5                             929  c7                              50 
    x8        c2                             961  c4                             442 
    x8        c1                             824  c6                             234 
    x8        c0                             347  c8                              83 
    x8        Obj                            690  c3                             311 
    x8        c9                             808 
    x9        c9                              79  c4                             542 
    x9        c8                             597  c6                              27 
    x9        c0                             666  Obj                            753 
    x9        c1                             872  c3                             759 
    x9        c7                             654  c5                             744 
    x9        c2                             717 
    x10       c9                             477  c3                             453 
    x10       Obj                            873  c4                              70 
    x10       c8                             274  c6                             352 
    x10       c0                             227  c5                             433 
    x10       c7                             820  c2                             542 
    x10       c1                             359 
    x11       c1                             266  c8                             782 
    x11       c0                             513  c9                             430 
    x11       c2                             937  c7                             531 
    x11       c3                             557  c6                             117 
    x11       c4                             920  c5                             939 
    x11       Obj                            675 
    x12       Obj                            842  c5                             625 
    x12       c3                             296  c1                             814 
    x12       c7                             585  c9                             213 
    x12       c8                             428  c0                             940 
    x12       c6                             893  c2                             814 
    x12       c4                             883 
    x13       c5                             935  c8                             202 
    x13       c3                             161  c7                             548 
    x13       c9                             740  c0                             957 
    x13       c1                             687  c6                             751 
    x13       c2                             442  c4                             665 
    x13       Obj                           1013 
    x14       Obj                            837  c4                             748 
    x14       c5                             914  c6                             648 
    x14       c7                             400  c1                             738 
    x14       c2                             123  c0                              92 
    x14       c3                             719  c9                              14 
    x14       c8                              44 
    x15       c9                             196  c1                             392 
    x15       c2                             726  c7                             708 
    x15       c6                              61  c8                             389 
    x15       Obj                            794  c3                              11 
    x15       c0                             655  c5                             811 
    x15       c4                             446 
    x16       c3                             220  Obj                            676 
    x16       c5                             559  c9                             642 
    x16       c1                             239  c4                             515 
    x16       c7                             118  c6                             305 
    x16       c0                             259  c8                             282 
    x16       c2                             283 
    x17       c7                             516  c3                             901 
    x17       c9                             328  Obj                           1000 
    x17       c4                             757  c2                             887 
    x17       c1                             873  c5                             738 
    x17       c6                             627  c0                             183 
    x17       c8                             797 
    x18       c8                              59  c1                             187 
    x18       c5                             809  c6                             655 
    x18       c0                             893  c3                             831 
    x18       c9                             562  Obj                            659 
    x18       c7                             615  c2                             254 
    x18       c4                             447 
    x19       Obj                            728  c5                             498 
    x19       c8                             239  c0                             918 
    x19       c9                             291  c2                              92 
    x19       c6                             731  c3                             270 
    x19       c4                             981  c7                             108 
    x19       c1                             550 
    x20       c1                             757  c7                             263 
    x20       c3                             720  c4                             216 
    x20       Obj                            639  c9                             166 
    x20       c8                             461  c0                             131 
    x20       c5                             562  c2                             743 
    x20       c6                             684 
    x21       c9                             670  c1                             457 
    x21       c2                             812  c4                             501 
    x21       Obj                            521  c5                             162 
    x21       c0                             157  c6                              13 
    x21       c3                             237  c8                              24 
    x21       c7                             741 
    x22       c8                             277  Obj                            935 
    x22       c0                             214  c1                             889 
    x22       c9                             268  c2                             570 
    x22       c5                             743  c7                             687 
    x22       c4                             321  c3                             391 
    x22       c6                             375 
    x23       c8                             481  c6                              68 
    x23       c0                             228  Obj                           1030 
    x23       c9                             686  c1                             931 
    x23       c2                             818  c5                             580 
    x23       c7                             545  c4                             265 
    x23       c3                             818 
    x24       c3                             951  c0                             908 
    x24       c6                             627  c9                             875 
    x24       Obj                            884  c1                             170 
    x24       c7                             899  c2                             361 
    x24       c4                             749  c5                             390 
    x24       c8                              91 
    x25       c9                             793  c0                               8 
    x25       c3                             481  c1                               6 
    x25       c7                             414  c8                             827 
    x25       Obj                            722  c6                             458 
    x25       c5                             933  c4                             577 
    x25       c2                             751 
    x26       Obj                            505  c5                             234 
    x26       c9                             156  c2                             834 
    x26       c0                              26  c3                             159 
    x26       c7                             730  c8                             444 
    x26       c4                             553  c1                             582 
    x26       c6                             554 
    x27       c5                              37  c0                             735 
    x27       c3                             611  Obj                            664 
    x27       c7                             861  c6                             627 
    x27       c1                             626  c8                             324 
    x27       c9                             223  c4                             958 
    x27       c2                              26 
    x28       c1                             398  c9                             732 
    x28       Obj                            638  c7                               6 
    x28       c6                             891  c2                             773 
    x28       c3                             562  c8                             347 
    x28       c0                             446  c4                             190 
    x28       c5                             919 
    x29       c8                             344  c9                             387 
    x29       c7                             461  c6                             736 
    x29       c0                             947  Obj                            870 
    x29       c4                             836  c3                             536 
    x29       c2                             598  c5                             165 
    x29       c1                             379 
    x30       c0                             978  c6                              74 
    x30       c3                             315  c7                             145 
    x30       c1                             744  Obj                            548 
    x30       c4                             370  c8                             670 
    x30       c9                              15  c5                              36 
    x30       c2                             331 
    x31       c7                             584  c4                             213 
    x31       c1                             286  c2                             143 
    x31       c0                              55  Obj                            497 
    x31       c6                             656  c8                             474 
    x31       c3                             546  c5                             508 
    x31       c9                             639 
    x32       c7                               5  c3                             954 
    x32       c4                             450  c6                             414 
    x32       c2                             536  c1                             449 
    x32       c5                              62  c9                             928 
    x32       c8                             257  c0                             559 
    x32       Obj                            525 
    x33       c2                             799  c0                             833 
    x33       c8                             390  c1                             628 
    x33       c3                             834  c9                             590 
    x33       Obj                            991  c4                             783 
    x33       c7                             274  c6                             458 
    x33       c5                             711 
    x34       c4                             317  c6                             508 
    x34       c9                             672  c0                             970 
    x34       c3                             758  c5                             259 
    x34       c7                             240  c2                             911 
    x34       Obj                            745  c1                             109 
    x34       c8                             406 
    x35       c4                             421  c5                             522 
    x35       c9                             682  c3                             550 
    x35       Obj                           1012  c7                             569 
    x35       c8                             702  c2                             999 
    x35       c1                              61  c0                             949 
    x35       c6                             850 
    x36       c6                             951  c2                             315 
    x36       c1                             744  c9                             707 
    x36       c7                             129  c8                             727 
    x36       Obj                            654  c5                             588 
    x36       c4                             492  c3                             678 
    x36       c0                             133 
    x37       c4                             915  c9                             140 
    x37       c8                              22  c6                             575 
    x37       c2                             287  c1                              61 
    x37       Obj                            496  c5                             804 
    x37       c7                             467  c0                             363 
    x37       c3                             166 
    x38       c0                             261  Obj                            944 
    x38       c2                             335  c4                             735 
    x38       c1                             100  c6                             635 
    x38       c9                             820  c7                             760 
    x38       c8                             828  c5                              11 
    x38       c3                             998 
    x39       c8                             726  c6                             124 
    x39       Obj                            604  c0                             926 
    x39       c5                             481  c1                             485 
    x39       c7                             442  c2                             200 
    x39       c9                             300  c4                             401 
    x39       c3                             108 
    x40       c3                             180  c9                             759 
    x40       c7                             668  c1                             520 
    x40       c4                             176  c2                              57 
    x40       c6                             157  c0                             866 
    x40       c8                              23  c5                             514 
    x40       Obj                            506 
    x41       Obj                            567  c0                             956 
    x41       c8                             486  c7                             734 
    x41       c4                             721  c1                             874 
    x41       c6                              81  c5                             327 
    x41       c2                             267  c9                             279 
    x41       c3                             636 
    x42       c8                             461  c0                             522 
    x42       c9                             240  c5                             349 
    x42       c7                             775  Obj                            442 
    x42       c3                             212  c6                             125 
    x42       c2                             325  c1                             299 
    x42       c4                             784 
    x43       c1                             602  c8                              18 
    x43       c0                              77  c9                             862 
    x43       c6                             152  c3                             136 
    x43       c4                             813  Obj                            740 
    x43       c5                             884  c2                             988 
    x43       c7                             213 
    x44       c7                             932  Obj                            647 
    x44       c8                             834  c1                             651 
    x44       c2                             583  c0                             578 
    x44       c9                             933  c3                             362 
    x44       c6                             367  c4                             174 
    x44       c5                             220 
    x45       c5                             794  Obj                            727 
    x45       c1                             278  c2                             786 
    x45       c0                              61  c7                             848 
    x45       c4                              90  c9                             120 
    x45       c8                             896  c3                             762 
    x45       c6                             351 
    x46       c8                             427  c3                             834 
    x46       c6                             401  c5                             502 
    x46       c7                             152  c1                             660 
    x46       c2                             132  c9                             947 
    x46       c0                             884  c4                             912 
    x46       Obj                            636 
    x47       c3                             159  c1                             755 
    x47       c2                             620  c0                             556 
    x47       c4                             952  c6                             191 
    x47       c9                             174  c8                             242 
    x47       c5                             571  Obj                            516 
    x47       c7                              42 
    x48       c8                             248  Obj                            834 
    x48       c6                             123  c4                             808 
    x48       c2                             169  c9                             110 
    x48       c7                             546  c0                             598 
    x48       c5                             361  c3                             634 
    x48       c1                             381 
    x49       c5                             513  c7                              16 
    x49       c3                             511  c0                             487 
    x49       c1                             989  c8                             402 
    x49       c9                             184  c4                             637 
    x49       c2                             719  Obj                            522 
    x49       c6                             306 
    x50       c3                             347  c8                             914 
    x50       c9                             555  c4                               2 
    x50       c2                             585  c7                             546 
    x50       c5                              88  c6                              36 
    x50       Obj                            793  c0                             242 
    x50       c1                             735 
    x51       c6                             924  c8                             817 
    x51       c2                             574  c7                             326 
    x51       c4                             712  c1                             415 
    x51       c3                              25  c0                             777 
    x51       c9                             714  c5                             139 
    x51       Obj                            788 
    x52       c3                             175  c8                             606 
    x52       c5                             428  c2                             287 
    x52       c7                             434  c6                             830 
    x52       c1                             158  c4                             410 
    x52       c0                             406  c9                             776 
    x52       Obj                            796 
    x53       c5                             803  c2                             256 
    x53       c6                             399  c0                             725 
    x53       c7                             786  c1                              16 
    x53       c4                             180  c3                              41 
    x53       Obj                            501  c9                             888 
    x53       c8                             492 
    x54       c1                              38  c8                             440 
    x54       c3                             849  c6                             414 
    x54       c5                             369  c0                             987 
    x54       c9                             888  Obj                            566 
    x54       c7                             265  c4                              22 
    x54       c2                             943 
    x55       c5                             119  c4                              57 
    x55       c9                             682  Obj                            838 
    x55       c6                             939  c0                             369 
    x55       c7                             763  c1                             555 
    x55       c2                             158  c8                             139 
    x55       c3                             801 
    x56       Obj                            574  c4                             678 
    x56       c3                             194  c5                             776 
    x56       c8                             568  c0                             496 
    x56       c2                             186  c9                             361 
    x56       c1                             981  c7                             680 
    x56       c6                             171 
    x57       c6                             544  c5                             660 
    x57       c9                              80  c1                             772 
    x57       c8                             756  Obj                            555 
    x57       c2                              72  c3                             864 
    x57       c7                             109  c4                              61 
    x57       c0                             477 
    x58       c8                             841  c9                             547 
    x58       c0                             375  c4                              55 
    x58       Obj                            565  c3                             345 
    x58       c2                             451  c1                             482 
    x58       c5                             645  c6                             743 
    x58       c7                              31 
    x59       c5                             265  c3                             610 
    x59       c7                             378  c6                             325 
    x59       c9                               8  c1                            1000 
    x59       c4                             131  c2                             270 
    x59       c8                             263  c0                             109 
    x59       Obj                            479 
    x60       c6                             629  c1                               8 
    x60       c5                             981  c9                             268 
    x60       c8                             212  c0                             251 
    x60       c2                             616  c4                             693 
    x60       Obj                            620  c7                             222 
    x60       c3                             547 
    x61       c6                             115  c5                             117 
    x61       c2                             556  Obj                            563 
    x61       c9                             785  c8                             249 
    x61       c7                              60  c4                             665 
    x61       c3                             590  c1                             264 
    x61       c0                              58 
    x62       c2                             467  c6                             952 
    x62       c9                             645  c0                              14 
    x62       c5                             972  c8                             589 
    x62       c7                             752  c4                             817 
    x62       Obj                            845  c1                              24 
    x62       c3                             879 
    x63       Obj                            632  c4                             847 
    x63       c6                             840  c7                             929 
    x63       c2                             517  c8                             492 
    x63       c5                             254  c3                             601 
    x63       c9                             721  c0                             790 
    x63       c1                              62 
    x64       c2                             312  c7                             872 
    x64       c5                             900  c6                             682 
    x64       c9                             662  c8                             930 
    x64       c1                             733  c0                             114 
    x64       c3                             816  Obj                            731 
    x64       c4                             918 
    x65       c4                             111  c8                             289 
    x65       Obj                            439  c2                             912 
    x65       c3                             829  c6                             304 
    x65       c5                             302  c7                              61 
    x65       c1                             106  c9                             716 
    x65       c0                              19 
    x66       Obj                            878  c2                             503 
    x66       c6                             539  c9                             879 
    x66       c3                             305  c1                              60 
    x66       c5                             787  c7                             344 
    x66       c0                             737  c4                             688 
    x66       c8                             987 
    x67       c8                              13  c3                             589 
    x67       c7                               4  c5                             293 
    x67       c2                             753  c9                             161 
    x67       Obj                            622  c1                             627 
    x67       c4                             583  c0                             329 
    x67       c6                             561 
    x68       c7                             228  Obj                            601 
    x68       c9                             472  c0                             593 
    x68       c1                             792  c2                             367 
    x68       c6                             341  c4                             934 
    x68       c5                             732  c8                             669 
    x68       c3                             878 
    x69       c7                             843  c3                             303 
    x69       c0                             609  c1                             641 
    x69       c4                             550  c8                             571 
    x69       c5                             232  c9                             639 
    x69       Obj                            696  c6                             115 
    x69       c2                             583 
    x70       c7                             860  c6                             210 
    x70       c3                             812  c5                             236 
    x70       c8                             602  c2                             445 
    x70       c9                             829  Obj                            568 
    x70       c4                             153  c0                             594 
    x70       c1                             241 
    x71       c4                             560  c8                             917 
    x71       c3                             247  c0                             379 
    x71       c1                             945  c7                             141 
    x71       c6                             809  Obj                            898 
    x71       c5                             782  c2                             452 
    x71       c9                             664 
    x72       c0                             105  c3                             859 
    x72       Obj                            865  c1                             723 
    x72       c8                             955  c7                             218 
    x72       c5                               2  c2                             599 
    x72       c6                             249  c4                             227 
    x72       c9                             450 
    x73       c7                             195  c2                             636 
    x73       Obj                            528  c9                             307 
    x73       c1                             216  c3                             986 
    x73       c5                              29  c8                             188 
    x73       c6                             830  c0                             635 
    x73       c4                             452 
    x74       c2                             838  c5                             621 
    x74       c7                             963  c6                             169 
    x74       c8                             948  c9                             817 
    x74       Obj                            894  c0                             748 
    x74       c3                             161  c4                             753 
    x74       c1                             910 
    x75       c6                             360  c7                             131 
    x75       c5                             530  c9                             798 
    x75       c8                             297  c2                             231 
    x75       Obj                            404  c4                             424 
    x75       c1                              59  c3                             361 
    x75       c0                             819 
    x76       Obj                            871  c5                             850 
    x76       c7                             152  c4                             464 
    x76       c2                             955  c6                             518 
    x76       c0                             948  c8                             947 
    x76       c9                             516  c3                             328 
    x76       c1                             583 
    x77       c1                             224  c5                             804 
    x77       c8                              98  c2                             828 
    x77       Obj                            698  c4                             201 
    x77       c3                             276  c9                             279 
    x77       c7                              88  c0                             961 
    x77       c6                             284 
    x78       c3                             652  c4                             271 
    x78       c8                             624  Obj                            724 
    x78       c6                              18  c2                             186 
    x78       c0                             794  c7                             467 
    x78       c9                             521  c1                             680 
    x78       c5                             928 
    x79       c5                             974  c9                             727 
    x79       c4                             919  c1                             958 
    x79       c8                             607  c0                              91 
    x79       c2                               9  c3                             296 
    x79       c6                             572  Obj                            665 
    x79       c7                             899 
    x80       c7                             298  c2                             266 
    x80       c6                             726  Obj                            869 
    x80       c5                             233  c9                             459 
    x80       c8                             347  c3                             791 
    x80       c0                             943  c4                             191 
    x80       c1                             493 
    x81       c3                             353  c8                             290 
    x81       c6                             109  c4                             715 
    x81       c0                             810  c9                             706 
    x81       Obj                            581  c1                             539 
    x81       c5                             317  c7                             143 
    x81       c2                             648 
    x82       c2                             604  c1                             871 
    x82       c0                             361  c8                             251 
    x82       c9                             376  c6                             316 
    x82       c3                             586  c7                             444 
    x82       c5                             320  c4                              35 
    x82       Obj                            547 
    x83       Obj                            591  c3                             785 
    x83       c8                             667  c5                             759 
    x83       c4                             728  c1                             407 
    x83       c2                             486  c7                             313 
    x83       c6                             519  c0                              60 
    x83       c9                             767 
    x84       c2                             966  c5                             950 
    x84       c4                             178  c7                             507 
    x84       c6                              28  Obj                            580 
    x84       c9                             909  c0                             202 
    x84       c1                             882  c8                             159 
    x84       c3                             576 
    x85       c0                             134  c5                             185 
    x85       c3                             684  c6                             812 
    x85       c7                             907  c8                             489 
    x85       Obj                            545  c9                             586 
    x85       c1                             447  c2                             451 
    x85       c4                             560 
    x86       c7                               5  Obj                            589 
    x86       c0                             117  c4                             683 
    x86       c1                             698  c3                             265 
    x86       c6                             563  c2                             254 
    x86       c8                             215  c9                             485 
    x86       c5                             302 
    x87       c0                             284  c7                             885 
    x87       c6                             923  Obj                            831 
    x87       c2                              64  c9                             476 
    x87       c5                             876  c1                             752 
    x87       c4                             644  c3                             109 
    x87       c8                             571 
    x88       c2                             540  c1                             430 
    x88       c4                             168  c6                             650 
    x88       c5                             820  Obj                           1020 
    x88       c3                             930  c8                             537 
    x88       c9                             118  c0                             784 
    x88       c7                             278 
    x89       c1                             784  c9                             167 
    x89       c2                             999  c7                             710 
    x89       c0                             955  c8                             141 
    x89       Obj                            987  c5                             255 
    x89       c6                             625  c4                             421 
    x89       c3                             827 
    x90       c7                             952  c3                             189 
    x90       Obj                            835  c6                             310 
    x90       c0                             132  c8                             511 
    x90       c1                             761  c2                             274 
    x90       c4                             345  c9                             997 
    x90       c5                             463 
    x91       c5                             966  c6                             191 
    x91       c0                             833  c4                             971 
    x91       c7                             902  c2                             814 
    x91       c9                             438  c8                             191 
    x91       Obj                            780  c1                             282 
    x91       c3                             468 
    x92       c0                             311  c4                             112 
    x92       c1                             764  c9                             694 
    x92       c8                             940  c6                             935 
    x92       c3                              28  c5                             505 
    x92       Obj                            710  c2                             217 
    x92       c7                             395 
    x93       c0                             656  c8                             113 
    x93       Obj                            505  c9                             446 
    x93       c4                             177  c1                             117 
    x93       c5                             806  c3                             321 
    x93       c6                             984  c7                             379 
    x93       c2                             720 
    x94       c0                             788  c9                             761 
    x94       Obj                            736  c4                             422 
    x94       c8                             479  c1                             366 
    x94       c6                             611  c7                             766 
    x94       c3                              14  c5                             342 
    x94       c2                             413 
    x95       Obj                            722  c1                             282 
    x95       c3                             243  c9                             840 
    x95       c4                             633  c0                              98 
    x95       c6                              47  c5                             137 
    x95       c8                             315  c2                             367 
    x95       c7                              88 
    x96       c8                             662  c3                             497 
    x96       c9                             761  c5                             475 
    x96       c4                             639  c0                             695 
    x96       c6                             634  c7                             378 
    x96       c2                              17  Obj                            832 
    x96       c1                             223 
    x97       c1                             389  c3                             299 
    x97       c4                             281  c9                             559 
    x97       c6                             566  c7                             711 
    x97       c0                             892  Obj                            654 
    x97       c2                             326  c8                             707 
    x97       c5                             710 
    x98       c6                             418  Obj                            503 
    x98       c2                             291  c9                             664 
    x98       c5                             480  c0                             726 
    x98       c7                              17  c4                             389 
    x98       c8                             614  c1                             195 
    x98       c3                             450 
    x99       c3                             709  c4                             714 
    x99       c5                             351  c2                             108 
    x99       c8                             552  Obj                            464 
    x99       c0                             161  c7                             189 
    x99       c6                             309  c1                              67 
    x99       c9                             755 
    INTEND    'MARKER'                            'INTEND'                           
RHS
    RHS       c0                           37699  c1                           36914 
    RHS       c2                           37191  c3                           37864 
    RHS       c4                           37792  c5                           38604 
    RHS       c6                           35111  c7                           34466 
    RHS       c8                           34577  c9                           40545 
BOUNDS
 BV Bound     x0                                 
 BV Bound     x1                                 
 BV Bound     x2                                 
 BV Bound     x3                                 
 BV Bound     x4                                 
 BV Bound     x5                                 
 BV Bound     x6                                 
 BV Bound     x7                                 
 BV Bound     x8                                 
 BV Bound     x9                                 
 BV Bound     x10                                
 BV Bound     x11                                
 BV Bound     x12                                
 BV Bound     x13                                
 BV Bound     x14                                
 BV Bound     x15                                
 BV Bound     x16                                
 BV Bound     x17                                
 BV Bound     x18                                
 BV Bound     x19                                
 BV Bound     x20                                
 BV Bound     x21                                
 BV Bound     x22                                
 BV Bound     x23                                
 BV Bound     x24                                
 BV Bound     x25                                
 BV Bound     x26                                
 BV Bound     x27                                
 BV Bound     x28                                
 BV Bound     x29                                
 BV Bound     x30                                
 BV Bound     x31                                
 BV Bound     x32                                
 BV Bound     x33                                
 BV Bound     x34                                
 BV Bound     x35                                
 BV Bound     x36                                
 BV Bound     x37                                
 BV Bound     x38                                
 BV Bound     x39                                
 BV Bound     x40                                
 BV Bound     x41                                
 BV Bound     x42                                
 BV Bound     x43                                
 BV Bound     x44                                
 BV Bound     x45                                
 BV Bound     x46                                
 BV Bound     x47                                
 BV Bound     x48                                
 BV Bound     x49                                
 BV Bound     x50                                
 BV Bound     x51                                
 BV Bound     x52                                
 BV Bound     x53                                
 BV Bound     x54                                
 BV Bound     x55                                
 BV Bound     x56                                
 BV Bound     x57                                
 BV Bound     x58                                
 BV Bound     x59                                
 BV Bound     x60                                
 BV Bound     x61                                
 BV Bound     x62                                
 BV Bound     x63                                
 BV Bound     x64                                
 BV Bound     x65                                
 BV Bound     x66                                
 BV Bound     x67                                
 BV Bound     x68                                
 BV Bound     x69                                
 BV Bound     x70                                
 BV Bound     x71                                
 BV Bound     x72                                
 BV Bound     x73                                
 BV Bound     x74                                
 BV Bound     x75                                
 BV Bound     x76                                
 BV Bound     x77                                
 BV Bound     x78                                
 BV Bound     x79                                
 BV Bound     x80                                
 BV Bound     x81                                
 BV Bound     x82                                
 BV Bound     x83                                
 BV Bound     x84                                
 BV Bound     x85                                
 BV Bound     x86                                
 BV Bound     x87                                
 BV Bound     x88                                
 BV Bound     x89                                
 BV Bound     x90                                
 BV Bound     x91                                
 BV Bound     x92                                
 BV Bound     x93                                
 BV Bound     x94                                
 BV Bound     x95                                
 BV Bound     x96                                
 BV Bound     x97                                
 BV Bound     x98                                
 BV Bound     x99                                
ENDATA