* SCIP STATISTICS
*   Problem name     : mknap_1
*   Variables        : 100 (100 binary, 0 integer, 0 implicit integer, 0 continuous)
*   Constraints      : 10
NAME          mknap_1
OBJSENSE
  MAX
ROWS
 N  Obj 
 L  c0 
 L  c1 
 L  c2 
 L  c3 
 L  c4 
 L  c5 
 L  c6 
 L  c7 
 L  c8 
 L  c9 
COLUMNS
    INTSTART  'MARKER'                            'INTORG'                           
    x0        Obj                            877  c5                             637 
    x0        c4                             763  c6                             695 
    x0        c3                             870  c7                             556 
    x0        c2                              80  c8                             807 
    x0        c1                             923  c9                             469 
    x0        c0                             504 
    x1        Obj                            485  c5                             926 
    x1        c4                             568  c6                             517 
    x1        c3                              28  c7                             244 
    x1        c2                             905  c8                             314 
    x1        c1                              48  c9                             239 
    x1        c0                             793 
    x2        c9                             538  c5                             187 
    x2        Obj                            931  c3                             785 
    x2        c1                             745  c4                             561 
    x2        c0                             417  c8                             275 
    x2        c7                             897  c2                             997 
    x2        c6                             611 
    x3        c9                             116  c8                             744 
    x3        c2                             283  c1                             889 
    x3        c6                             363  c7                             976 
    x3        c3                             997  Obj                            957 
    x3        c4                             430  c0                             431 
    x3        c5                             170 
    x4        c4                             459  c3                             610 
    x4        c0                             998  c6                             308 
    x4        Obj                            693  c1                             123 
    x4        c7                             580  c2                             851 
    x4        c5                             562  c8                             566 
    x4        c9                             632 
    x5        c8                             629  c3                             345 
    x5        c1                             864  c5                              10 
    x5        c6                             250  c7                             533 
    x5        Obj                            451  c4                             221 
    x5        c0                             431  c9                             281 
    x5        c2                             206 
    x6        Obj                            930  c3                             845 
    x6        c8                             220  c4                             910 
    x6        c0                             371  c7                             390 
    x6        c5                             388  c9                             279 
    x6        c1                             142  c2                             918 
    x6        c6                             269 
    x7        c9                             599  c5                             454 
    x7        c1                             118  c7                             463 
    x7        c2                             212  c4                             339 
    x7        Obj                            406  c8                             273 
    x7        c0                             636  c3                             731 
    x7        c6                             161 
    x8        c5                             932  c7                             245 
    x8        c2                              32  c4                             505 
    x8        c1                             643  c6                             388 
    x8        c0                             239  c8                             297 
    x8        Obj                            736  c3                             972 
    x8        c9                              74 
    x9        c9                             292  c4                             765 
    x9        c8                             668  c6                             787 
    x9        c0                             361  Obj                            668 
    x9        c1                              67  c3                             605 
    x9        c7                             527  c5                             302 
    x9        c2                             483 
    x10       c9                             468  c3                             106 
    x10       Obj                            846  c4                             322 
    x10       c8                             535  c6                             347 
    x10       c0                             408  c5                             697 
    x10       c7                             323  c2                             734 
    x10       c1                             582 
    x11       c1                             966  c8                             660 
    x11       c0                             766  c9                             223 
    x11       c2                             809  c7                             660 
    x11       c3                             989  c6                             293 
    x11       c4                             746  c5                             969 
    x11       Obj                            941 
    x12       Obj                            795  c5                             295 
    x12       c3                             301  c1                             164 
    x12       c7                              26  c9                             808 
    x12       c8                             242  c0                             184 
    x12       c6                             145  c2                             614 
    x12       c4                             179 
    x13       c5                             855  c8                             584 
    x13       c3                             648  c7                             419 
    x13       c9                             622  c0                             145 
    x13       c1                             206  c6                             573 
    x13       c2                             661  c4                             840 
    x13       Obj                            832 
    x14       Obj                            599  c4                             340 
    x14       c5                             466  c6                             423 
    x14       c7                             239  c1                             406 
    x14       c2                             327  c0                              66 
    x14       c3                             987  c9                             108 
    x14       c8                             492 
    x15       c9                             363  c1                             386 
    x15       c2                              65  c7                             414 
    x15       c6                             180  c8                             206 
    x15       Obj                            703  c3                              14 
    x15       c0                             900  c5                             873 
    x15       c4                             152 
    x16       c3                             107  Obj                            559 
    x16       c5                             978  c9                             477 
    x16       c1                             130  c4                             981 
    x16       c7                             270  c6                             132 
    x16       c0                             599  c8                             878 
    x16       c2                             485 
    x17       c7                             766  c3                             240 
    x17       c9                             493  Obj                            711 
    x17       c4                             832  c2                             841 
    x17       c1                             604  c5                             575 
    x17       c6                             349  c0                             362 
    x17       c8                             634 
    x18       c8                             622  c1                             238 
    x18       c5                             905  c6                             831 
    x18       c0                             301  c3                             166 
    x18       c9                             205  Obj                            876 
    x18       c7                             104  c2                             761 
    x18       c4                              99 
    x19       Obj                            727  c5                             482 
    x19       c8                             282  c0                             846 
    x19       c9                              53  c2                             394 
    x19       c6                             532  c3                             975 
    x19       c4                             971  c7                             296 
    x19       c1                             487 
    x20       c1                             978  c7                              42 
    x20       c3                             885  c4                             762 
    x20       Obj                            703  c9                             126 
    x20       c8                             461  c0                             103 
    x20       c5                             543  c2                             377 
    x20       c6                             406 
    x21       c9                              21  c1                             778 
    x21       c2                             510  c4                             741 
    x21       Obj                            616  c5                             289 
    x21       c0                             819  c6                              53 
    x21       c3                              62  c8                             855 
    x21       c7                             846 
    x22       c8                             768  Obj                            906 
    x22       c0                             382  c1                             980 
    x22       c9                             891  c2                              96 
    x22       c5                             943  c7                             967 
    x22       c4                             799  c3                             863 
    x22       c6                             864 
    x23       c8                             794  c6                              77 
    x23       c0                             917  Obj                            686 
    x23       c9                              22  c1                             383 
    x23       c2                             141  c5                              47 
    x23       c7                             700  c4                             421 
    x23       c3                             180 
    x24       c3                             119  c0                             156 
    x24       c6                             358  c9                             818 
    x24       Obj                            527  c1                             424 
    x24       c7                             238  c2                             136 
    x24       c4                             178  c5                             433 
    x24       c8                             241 
    x25       c9                              69  c0                             977 
    x25       c3                             447  c1                             826 
    x25       c7                             834  c8                             922 
    x25       Obj                           1017  c6                             404 
    x25       c5                             831  c4                              89 
    x25       c2                             209 
    x26       Obj                            718  c5                             370 
    x26       c9                              30  c2                             637 
    x26       c0                             314  c3                              19 
    x26       c7                             572  c8                             420 
    x26       c4                             776  c1                             857 
    x26       c6                             166 
    x27       c5                             110  c0                              68 
    x27       c3                             365  Obj                            473 
    x27       c7                             169  c6                              24 
    x27       c1                             634  c8                             101 
    x27       c9                             573  c4                             582 
    x27       c2                             451 
    x28       c1                             781  c9                             891 
    x28       Obj                            984  c7                             321 
    x28       c6                             705  c2                             442 
    x28       c3                             646  c8                             184 
    x28       c0                             822  c4                             208 
    x28       c5                             496 
    x29       c8                             576  c9                             201 
    x29       c7                             647  c6                             260 
    x29       c0                              68  Obj                            925 
    x29       c4                             882  c3                             683 
    x29       c2                             237  c5                               3 
    x29       c1                             952 
    x30       c0                             896  c6                             666 
    x30       c3                             257  c7                              33 
    x30       c1                              28  Obj                            839 
    x30       c4                             639  c8                             247 
    x30       c9                             643  c5                              43 
    x30       c2                             892 
    x31       c7                             452  c4                             395 
    x31       c1                              97  c2                             123 
    x31       c0                             111  Obj                            614 
    x31       c6                             713  c8                             463 
    x31       c3                             353  c5                             951 
    x31       c9                             927 
    x32       c7                              78  c3                             427 
    x32       c4                             888  c6                             133 
    x32       c2                             243  c1                             499 
    x32       c5                              61  c9                             670 
    x32       c8                             762  c0                              93 
    x32       Obj                            803 
    x33       c2                              25  c0                             757 
    x33       c8                             498  c1                              55 
    x33       c3                             160  c9                             656 
    x33       Obj                            812  c4                             123 
    x33       c7                             801  c6                             778 
    x33       c5                             671 
    x34       c4                             383  c6                             218 
    x34       c9                             516  c0                             679 
    x34       c3                             568  c5                             209 
    x34       c7                             304  c2                             810 
    x34       Obj                            596  c1                             322 
    x34       c8                             494 
    x35       c4                             304  c5                             707 
    x35       c9                             694  c3                             442 
    x35       Obj                            759  c7                              40 
    x35       c8                             979  c2                             705 
    x35       c1                             479  c0                              22 
    x35       c6                             188 
    x36       c6                             388  c2                             857 
    x36       c1                             720  c9                             953 
    x36       c7                              76  c8                             834 
    x36       Obj                           1061  c5                             742 
    x36       c4                             812  c3                             352 
    x36       c0                             825 
    x37       c4                             233  c9                             835 
    x37       c8                             245  c6                              72 
    x37       c2                             319  c1                              81 
    x37       Obj                            624  c5                             917 
    x37       c7                             128  c0                             781 
    x37       c3                             795 
    x38       c0                             165  Obj                            532 
    x38       c2                             700  c4                             777 
    x38       c1                             659  c6                              79 
    x38       c9                             215  c7                             619 
    x38       c8                             359  c5                             727 
    x38       c3                             768 
    x39       c8                             833  c6                             673 
    x39       Obj                            906  c0                             727 
    x39       c5                             548  c1                             573 
    x39       c7                             158  c2                             510 
    x39       c9                             434  c4                             638 
    x39       c3                             499 
    x40       c3                             299  c9                             649 
    x40       c7                             972  c1                             804 
    x40       c4                              59  c2                             462 
    x40       c6                             264  c0                             750 
    x40       c8                              52  c5                             465 
    x40       Obj                            533 
    x41       Obj                            318  c0                             372 
    x41       c8                              41  c7                             670 
    x41       c4                             982  c1                             112 
    x41       c6                             154  c5                             117 
    x41       c2                              69  c9                               3 
    x41       c3                             587 
    x42       c8                             599  c0                             988 
    x42       c9                             199  c5                             870 
    x42       c7                             647  Obj                            683 
    x42       c3                             290  c6                             242 
    x42       c2                             280  c1                             691 
    x42       c4                             577 
    x43       c1                             756  c8                             920 
    x43       c0                             254  c9                             911 
    x43       c6                             158  c3                             739 
    x43       c4                              61  Obj                            607 
    x43       c5                             401  c2                             545 
    x43       c7                             570 
    x44       c7                             432  Obj                            924 
    x44       c8                             978  c1                             947 
    x44       c2                             173  c0                             945 
    x44       c9                               8  c3                             525 
    x44       c6                             699  c4                             573 
    x44       c5                             216 
    x45       c5                             194  Obj                            939 
    x45       c1                             543  c2                             702 
    x45       c0                             995  c7                              81 
    x45       c4                             296  c9                             207 
    x45       c8                             587  c3                             910 
    x45       c6                              27 
    x46       c8                             494  c3                             511 
    x46       c6                             900  c5                             155 
    x46       c7                             607  c1                             726 
    x46       c2                             317  c9                             876 
    x46       c0                              77  c4                              84 
    x46       Obj                            934 
    x47       c3                             918  c1                             346 
    x47       c2                             449  c0                             158 
    x47       c4                               8  c6                             537 
    x47       c9                              28  c8                              42 
    x47       c5                             966  Obj                            739 
    x47       c7                             187 
    x48       c8                             855  Obj                            682 
    x48       c6                             692  c4                             274 
    x48       c2                             732  c9                               9 
    x48       c7                              48  c0                             222 
    x48       c5                             936  c3                             514 
    x48       c1                             920 
    x49       c5                             275  c7                             941 
    x49       c3                             208  c0                             371 
    x49       c1                             784  c8                              67 
    x49       c9                             447  c4                             111 
    x49       c2                             190  Obj                            753 
    x49       c6                             541 
    x50       c3                               9  c8                             341 
    x50       c9                             595  c4                             110 
    x50       c2                              73  c7                             769 
    x50       c5                             822  c6                              79 
    x50       Obj                            524  c0                             482 
    x50       c1                             840 
    x51       c6                             554  c8                             346 
    x51       c2                             135  c7                             576 
    x51       c4                             763  c1                             952 
    x51       c3                             487  c0                             325 
    x51       c9                             223  c5                             413 
    x51       Obj                            881 
    x52       c3                             934  c8                              80 
    x52       c5                             657  c2                             158 
    x52       c7                             252  c6                             777 
    x52       c1                             960  c4                             211 
    x52       c0                             333  c9                             788 
    x52       Obj                            994 
    x53       c5                              91  c2                             783 
    x53       c6                             970  c0                             674 
    x53       c7                             519  c1                              92 
    x53       c4                             616  c3                             624 
    x53       Obj                            874  c9                             404 
    x53       c8                             877 
    x54       c1                             767  c8                             891 
    x54       c3                             892  c6                             367 
    x54       c5                             351  c0                             421 
    x54       c9                             333  Obj                           1056 
    x54       c7                             771  c4                             765 
    x54       c2                             814 
    x55       c5                             934  c4                             318 
    x55       c9                             360  Obj                            682 
    x55       c6                             362  c0                             409 
    x55       c7                             619  c1                              89 
    x55       c2                             341  c8                             678 
    x55       c3                              24 
    x56       Obj                            867  c4                              71 
    x56       c3                             820  c5                             462 
    x56       c8                             637  c0                             480 
    x56       c2                             686  c9                             823 
    x56       c1                             914  c7                             584 
    x56       c6                             543 
    x57       c6                             781  c5                             512 
    x57       c9                             900  c1                             188 
    x57       c8                             592  Obj                            660 
    x57       c2                             934  c3                             345 
    x57       c7                             394  c4                             420 
    x57       c0                             673 
    x58       c8                             650  c9                             609 
    x58       c0                             665  c4                             720 
    x58       Obj                            594  c3                             658 
    x58       c2                              11  c1                             313 
    x58       c5                             673  c6                             592 
    x58       c7                              69 
    x59       c5                             455  c3                             349 
    x59       c7                             335  c6                             903 
    x59       c9                             116  c1                             283 
    x59       c4                             598  c2                             810 
    x59       c8                             820  c0                             516 
    x59       Obj                            848 
    x60       c6                             626  c1                             167 
    x60       c5                              66  c9                             627 
    x60       c8                             451  c0                             334 
    x60       c2                             202  c4                             702 
    x60       Obj                            733  c7                             419 
    x60       c3                             902 
    x61       c6                             823  c5                             387 
    x61       c2                             461  Obj                            924 
    x61       c9                             183  c8                             304 
    x61       c7                              26  c4                              40 
    x61       c3                            1000  c1                             794 
    x61       c0                             454 
    x62       c2                             844  c6                             423 
    x62       c9                              33  c0                             204 
    x62       c5                             795  c8                             245 
    x62       c7                             187  c4                             253 
    x62       Obj                            447  c1                              13 
    x62       c3                             585 
    x63       Obj                            383  c4                             656 
    x63       c6                             226  c7                             185 
    x63       c2                             345  c8                             214 
    x63       c5                             236  c3                             875 
    x63       c9                             487  c0                             232 
    x63       c1                              83 
    x64       c2                             805  c7                             118 
    x64       c5                             918  c6                             797 
    x64       c9                             546  c8                             222 
    x64       c1                              30  c0                              12 
    x64       c3                             635  Obj                            602 
    x64       c4                             307 
    x65       c4                             123  c8                             291 
    x65       Obj                            863  c2                             855 
    x65       c3                             730  c6                             595 
    x65       c5                             620  c7                             601 
    x65       c1                             366  c9                             122 
    x65       c0                             274 
    x66       Obj                            831  c2                             769 
    x66       c6                             600  c9                             357 
    x66       c3                             789  c1                             315 
    x66       c5                             203  c7                             880 
    x66       c0                             705  c4                             333 
    x66       c8                             790 
    x67       c8                             134  c3                             436 
    x67       c7                             416  c5                             894 
    x67       c2                             756  c9                             454 
    x67       Obj                            986  c1                             354 
    x67       c4                             861  c0                             627 
    x67       c6                             678 
    x68       c7                             621  Obj                            740 
    x68       c9                             465  c0                             352 
    x68       c1                             357  c2                             770 
    x68       c6                             385  c4                             404 
    x68       c5                             893  c8                             649 
    x68       c3                             211 
    x69       c7                             228  c3                              91 
    x69       c0                             858  c1                             793 
    x69       c4                             177  c8                             406 
    x69       c5                             507  c9                             574 
    x69       Obj                            607  c6                             577 
    x69       c2                             390 
    x70       c7                             300  c6                             483 
    x70       c3                             956  c5                             810 
    x70       c8                             865  c2                             376 
    x70       c9                             306  Obj                            826 
    x70       c4                            1000  c0                             407 
    x70       c1                             131 
    x71       c4                              91  c8                             288 
    x71       c3                              71  c0                             401 
    x71       c1                              58  c7                             523 
    x71       c6                             281  Obj                            668 
    x71       c5                             651  c2                             315 
    x71       c9                             169 
    x72       c0                             357  c3                             939 
    x72       Obj                            585  c1                             390 
    x72       c8                             567  c7                             383 
    x72       c5                             115  c2                             945 
    x72       c6                             614  c4                             513 
    x72       c9                             378 
    x73       c7                             445  c2                             180 
    x73       Obj                           1005  c9                             520 
    x73       c1                             228  c3                             518 
    x73       c5                             646  c8                             581 
    x73       c6                             667  c0                             406 
    x73       c4                             986 
    x74       c2                             146  c5                             597 
    x74       c7                              74  c6                             957 
    x74       c8                             401  c9                             528 
    x74       Obj                            926  c0                             556 
    x74       c3                             518  c4                             999 
    x74       c1                             686 
    x75       c6                             695  c7                             951 
    x75       c5                             417  c9                             572 
    x75       c8                             993  c2                             756 
    x75       Obj                            831  c4                             585 
    x75       c1                             254  c3                             546 
    x75       c0                             188 
    x76       Obj                            608  c5                             449 
    x76       c7                             741  c4                             318 
    x76       c2                             148  c6                             802 
    x76       c0                             381  c8                             245 
    x76       c9                             294  c3                             921 
    x76       c1                             599 
    x77       c1                             294  c5                             758 
    x77       c8                             941  c2                             139 
    x77       Obj                            760  c4                             626 
    x77       c3                              40  c9                              22 
    x77       c7                             567  c0                             924 
    x77       c6                             793 
    x78       c3                             313  c4                             414 
    x78       c8                             558  Obj                            582 
    x78       c6                             592  c2                             645 
    x78       c0                             575  c7                             217 
    x78       c9                             157  c1                             878 
    x78       c5                             952 
    x79       c5                             586  c9                             231 
    x79       c4                             568  c1                             932 
    x79       c8                             795  c0                             188 
    x79       c2                             962  c3                              15 
    x79       c6                             411  Obj                            794 
    x79       c7                               5 
    x80       c7                             460  c2                              71 
    x80       c6                             948  Obj                            616 
    x80       c5                             106  c9                             868 
    x80       c8                             357  c3                             464 
    x80       c0                             178  c4                              64 
    x80       c1                             959 
    x81       c3                              35  c8                             513 
    x81       c6                             724  c4                             974 
    x81       c0                             890  c9                             535 
    x81       Obj                            896  c1                             632 
    x81       c5                             864  c7                             372 
    x81       c2                             461 
    x82       c2                             231  c1                             846 
    x82       c0                             696  c8                             324 
    x82       c9                             101  c6                             297 
    x82       c3                             774  c7                             568 
    x82       c5                             907  c4                             206 
    x82       Obj                            564 
    x83       Obj                            770  c3                             296 
    x83       c8                             917  c5                             541 
    x83       c4                             187  c1                             788 
    x83       c2                             838  c7                             653 
    x83       c6                             406  c0                             206 
    x83       c9                             203 
    x84       c2                             937  c5                             371 
    x84       c4                             497  c7                             770 
    x84       c6                             454  Obj                            918 
    x84       c9                             660  c0                             675 
    x84       c1                             369  c8                             946 
    x84       c3                             545 
    x85       c0                             293  c5                              28 
    x85       c3                             803  c6                             405 
    x85       c7                             966  c8                             199 
    x85       Obj                            792  c9                             495 
    x85       c1                             361  c2                              26 
    x85       c4                              11 
    x86       c7                             281  Obj                            616 
    x86       c0                             768  c4                             387 
    x86       c1                             657  c3                             133 
    x86       c6                             381  c2                             397 
    x86       c8                             202  c9                             383 
    x86       c5                             842 
    x87       c0                             679  c7                             333 
    x87       c6                             723  Obj                            771 
    x87       c2                             294  c9                             667 
    x87       c5                             451  c1                             309 
    x87       c4                             493  c3                             618 
    x87       c8                             660 
    x88       c2                             509  c1                             123 
    x88       c4                             115  c6                               6 
    x88       c5                             197  Obj                            336 
    x88       c3                             549  c8                             132 
    x88       c9                             483  c0                             376 
    x88       c7                             130 
    x89       c1                             688  c9                             709 
    x89       c2                              53  c7                             318 
    x89       c0                             868  c8                             664 
    x89       Obj                            900  c5                             335 
    x89       c6                             203  c4                             471 
    x89       c3                             523 
    x90       c7                             896  c3                             745 
    x90       Obj                            749  c6                             619 
    x90       c0                              63  c8                             215 
    x90       c1                             116  c2                             719 
    x90       c4                             618  c9                              54 
    x90       c5                             701 
    x91       c5                              92  c6                             880 
    x91       c0                             813  c4                             828 
    x91       c7                             288  c2                             128 
    x91       c9                             460  c8                             109 
    x91       Obj                            485  c1                             308 
    x91       c3                             626 
    x92       c0                             548  c4                             799 
    x92       c1                             187  c9                             460 
    x92       c8                             715  c6                             732 
    x92       c3                             740  c5                             993 
    x92       Obj                            758  c2                             607 
    x92       c7                             920 
    x93       c0                             275  c8                             377 
    x93       Obj                            727  c9                             573 
    x93       c4                             556  c1                             549 
    x93       c5                             297  c3                             365 
    x93       c6                             870  c7                             248 
    x93       c2                             550 
    x94       c0                             177  c9                             164 
    x94       Obj                            619  c4                             113 
    x94       c8                             829  c1                             906 
    x94       c6                             264  c7                              92 
    x94       c3                             891  c5                             732 
    x94       c2                             412 
    x95       Obj                            725  c1                             252 
    x95       c3                             514  c9                             805 
    x95       c4                             289  c0                             521 
    x95       c6                             148  c5                             245 
    x95       c8                             206  c2                              44 
    x95       c7                             102 
    x96       c8                             228  c3                             372 
    x96       c9                             154  c5                             672 
    x96       c4                             811  c0                             804 
    x96       c6                             281  c7                             228 
    x96       c2                             494  Obj                            664 
    x96       c1                             158 
    x97       c1                             485  c3                             467 
    x97       c4                             104  c9                             884 
    x97       c6                             439  c7                             244 
    x97       c0                             664  Obj                            883 
    x97       c2                             806  c8                             141 
    x97       c5                             302 
    x98       c6                             373  Obj                            883 
    x98       c2                             420  c9                             190 
    x98       c5                             569  c0                             904 
    x98       c7                             371  c4                             740 
    x98       c8                             642  c1                             860 
    x98       c3                             615 
    x99       c3                             353  c4                             780 
    x99       c5                             514  c2                             844 
    x99       c8                              87  Obj                            871 
    x99       c0                             422  c7                             335 
    x99       c6                             521  c1                             524 
    x99       c9                             724 
    INTEND    'MARKER'                            'INTEND'                           
RHS
    RHS       c0                           12201  c1                           12416 
    RHS       c2                           11848  c3                           13093 
    RHS       c4                           12057  c5                           13132 
    RHS       c6                           11805  c7                           10865 
    RHS       c8                           12479  c9                           10652 
BOUNDS
 BV Bound     x0                                 
 BV Bound     x1                                 
 BV Bound     x2                                 
 BV Bound     x3                                 
 BV Bound     x4                                 
 BV Bound     x5                                 
 BV Bound     x6                                 
 BV Bound     x7                                 
 BV Bound     x8                                 
 BV Bound     x9                                 
 BV Bound     x10                                
 BV Bound     x11                                
 BV Bound     x12                                
 BV Bound     x13                                
 BV Bound     x14                                
 BV Bound     x15                                
 BV Bound     x16                                
 BV Bound     x17                                
 BV Bound     x18                                
 BV Bound     x19                                
 BV Bound     x20                                
 BV Bound     x21                                
 BV Bound     x22                                
 BV Bound     x23                                
 BV Bound     x24                                
 BV Bound     x25                                
 BV Bound     x26                                
 BV Bound     x27                                
 BV Bound     x28                                
 BV Bound     x29                                
 BV Bound     x30                                
 BV Bound     x31                                
 BV Bound     x32                                
 BV Bound     x33                                
 BV Bound     x34                                
 BV Bound     x35                                
 BV Bound     x36                                
 BV Bound     x37                                
 BV Bound     x38                                
 BV Bound     x39                                
 BV Bound     x40                                
 BV Bound     x41                                
 BV Bound     x42                                
 BV Bound     x43                                
 BV Bound     x44                                
 BV Bound     x45                                
 BV Bound     x46                                
 BV Bound     x47                                
 BV Bound     x48                                
 BV Bound     x49                                
 BV Bound     x50                                
 BV Bound     x51                                
 BV Bound     x52                                
 BV Bound     x53                                
 BV Bound     x54                                
 BV Bound     x55                                
 BV Bound     x56                                
 BV Bound     x57                                
 BV Bound     x58                                
 BV Bound     x59                                
 BV Bound     x60                                
 BV Bound     x61                                
 BV Bound     x62                                
 BV Bound     x63                                
 BV Bound     x64                                
 BV Bound     x65                                
 BV Bound     x66                                
 BV Bound     x67                                
 BV Bound     x68                                
 BV Bound     x69                                
 BV Bound     x70                                
 BV Bound     x71                                
 BV Bound     x72                                
 BV Bound     x73                                
 BV Bound     x74                                
 BV Bound     x75                                
 BV Bound     x76                                
 BV Bound     x77                                
 BV Bound     x78                                
 BV Bound     x79                                
 BV Bound     x80                                
 BV Bound     x81                                
 BV Bound     x82                                
 BV Bound     x83                                
 BV Bound     x84                                
 BV Bound     x85                                
 BV Bound     x86                                
 BV Bound     x87                                
 BV Bound     x88                                
 BV Bound     x89                                
 BV Bound     x90                                
 BV Bound     x91                                
 BV Bound     x92                                
 BV Bound     x93                                
 BV Bound     x94                                
 BV Bound     x95                                
 BV Bound     x96                                
 BV Bound     x97                                
 BV Bound     x98                                
 BV Bound     x99                                
ENDATA