* SCIP STATISTICS
*   Problem name     : mknap_22
*   Variables        : 100 (100 binary, 0 integer, 0 implicit integer, 0 continuous)
*   Constraints      : 10
NAME          mknap_22
OBJSENSE
  MAX
ROWS
 N  Obj 
 L  c0 
 L  c1 
 L  c2 
 L  c3 
 L  c4 
 L  c5 
 L  c6 
 L  c7 
 L  c8 
 L  c9 
COLUMNS
    INTSTART  'MARKER'                            'INTORG'                           
    x0        Obj                            680  c5                             793 
    x0        c4                             508  c6                              56 
    x0        c3                             729  c7                             662 
    x0        c2                             529  c8                               8 
    x0        c1                             719  c9                             265 
    x0        c0                             772 
    x1        Obj                            824  c5                             545 
    x1        c4                             759  c6                             827 
    x1        c3                             806  c7                             425 
    x1        c2                             615  c8                             560 
    x1        c1                             942  c9                             246 
    x1        c0                              91 
    x2        c9                             831  c5                             678 
    x2        Obj                            671  c3                             209 
    x2        c1                             236  c4                             548 
    x2        c0                             191  c8                             767 
    x2        c7                             479  c2                             165 
    x2        c6                             795 
    x3        c9                             622  c8                             231 
    x3        c2                             545  c1                             855 
    x3        c6                             880  c7                             921 
    x3        c3                             630  Obj                            836 
    x3        c4                             875  c0                              54 
    x3        c5                             470 
    x4        c4                             989  c3                             380 
    x4        c0                             503  c6                             323 
    x4        Obj                           1154  c1                             960 
    x4        c7                             847  c2                             371 
    x4        c5                             887  c8                             352 
    x4        c9                             970 
    x5        c8                             426  c3                             488 
    x5        c1                             255  c5                             327 
    x5        c6                             953  c7                              48 
    x5        Obj                            751  c4                             568 
    x5        c0                             526  c9                             158 
    x5        c2                             484 
    x6        Obj                            693  c3                               6 
    x6        c8                             254  c4                             706 
    x6        c0                             299  c7                              85 
    x6        c5                             458  c9                             504 
    x6        c1                             135  c2                             981 
    x6        c6                             743 
    x7        c9                             480  c5                             851 
    x7        c1                             506  c7                             279 
    x7        c2                             582  c4                              53 
    x7        Obj                            915  c8                             660 
    x7        c0                             598  c3                             350 
    x7        c6                             813 
    x8        c5                              22  c7                             233 
    x8        c2                             687  c4                             816 
    x8        c1                             942  c6                             556 
    x8        c0                             444  c8                             317 
    x8        Obj                            500  c3                              32 
    x8        c9                             273 
    x9        c9                              52  c4                             459 
    x9        c8                             697  c6                             143 
    x9        c0                             850  Obj                            473 
    x9        c1                             989  c3                             319 
    x9        c7                              42  c5                             840 
    x9        c2                             307 
    x10       c9                             271  c3                             884 
    x10       Obj                            832  c4                             770 
    x10       c8                               6  c6                             907 
    x10       c0                             318  c5                             772 
    x10       c7                             768  c2                             476 
    x10       c1                              89 
    x11       c1                             139  c8                             449 
    x11       c0                             464  c9                             341 
    x11       c2                             636  c7                             720 
    x11       c3                             463  c6                              47 
    x11       c4                             119  c5                             714 
    x11       Obj                            704 
    x12       Obj                           1075  c5                             922 
    x12       c3                             546  c1                             325 
    x12       c7                              85  c9                             952 
    x12       c8                             362  c0                             625 
    x12       c6                             317  c2                             937 
    x12       c4                             717 
    x13       c5                             644  c8                             858 
    x13       c3                             703  c7                             359 
    x13       c9                             478  c0                             297 
    x13       c1                             576  c6                             847 
    x13       c2                              71  c4                             230 
    x13       Obj                            947 
    x14       Obj                            453  c4                             364 
    x14       c5                             160  c6                             452 
    x14       c7                              34  c1                             781 
    x14       c2                             309  c0                              37 
    x14       c3                             819  c9                             142 
    x14       c8                             170 
    x15       c9                             767  c1                              78 
    x15       c2                             971  c7                             207 
    x15       c6                             995  c8                             852 
    x15       Obj                            948  c3                              29 
    x15       c0                             627  c5                             990 
    x15       c4                             950 
    x16       c3                             288  Obj                            646 
    x16       c5                             236  c9                              56 
    x16       c1                             178  c4                             495 
    x16       c7                             187  c6                             483 
    x16       c0                             567  c8                             670 
    x16       c2                             550 
    x17       c7                               3  c3                             979 
    x17       c9                             563  Obj                            872 
    x17       c4                             750  c2                              99 
    x17       c1                             881  c5                             378 
    x17       c6                              10  c0                             823 
    x17       c8                             274 
    x18       c8                             855  c1                             108 
    x18       c5                             578  c6                             579 
    x18       c0                             393  c3                              49 
    x18       c9                             923  Obj                            618 
    x18       c7                             101  c2                             109 
    x18       c4                             652 
    x19       Obj                            991  c5                              37 
    x19       c8                             869  c0                             996 
    x19       c9                             208  c2                             900 
    x19       c6                             571  c3                             212 
    x19       c4                               5  c7                             887 
    x19       c1                             442 
    x20       c1                             444  c7                             432 
    x20       c3                             204  c4                             541 
    x20       Obj                            552  c9                             344 
    x20       c8                             634  c0                             680 
    x20       c5                              95  c2                             537 
    x20       c6                             557 
    x21       c9                             360  c1                             158 
    x21       c2                             799  c4                             489 
    x21       Obj                            710  c5                             752 
    x21       c0                             819  c6                              63 
    x21       c3                             598  c8                             174 
    x21       c7                             200 
    x22       c8                             172  Obj                            558 
    x22       c0                             905  c1                             257 
    x22       c9                               7  c2                             922 
    x22       c5                             977  c7                             508 
    x22       c4                             218  c3                             375 
    x22       c6                             688 
    x23       c8                              45  c6                             494 
    x23       c0                             403  Obj                            885 
    x23       c9                             879  c1                             333 
    x23       c2                             777  c5                             564 
    x23       c7                             318  c4                             221 
    x23       c3                             731 
    x24       c3                             705  c0                             611 
    x24       c6                             821  c9                             816 
    x24       Obj                            974  c1                              22 
    x24       c7                             130  c2                             513 
    x24       c4                             736  c5                              39 
    x24       c8                             993 
    x25       c9                             715  c0                             794 
    x25       c3                              53  c1                             882 
    x25       c7                             161  c8                             727 
    x25       Obj                            653  c6                             232 
    x25       c5                             862  c4                             786 
    x25       c2                             725 
    x26       Obj                            459  c5                             515 
    x26       c9                             300  c2                             897 
    x26       c0                             758  c3                             173 
    x26       c7                             124  c8                             167 
    x26       c4                             749  c1                              39 
    x26       c6                              76 
    x27       c5                             618  c0                              63 
    x27       c3                              51  Obj                            760 
    x27       c7                             236  c6                             611 
    x27       c1                             288  c8                             743 
    x27       c9                             833  c4                             186 
    x27       c2                             553 
    x28       c1                             725  c9                             404 
    x28       Obj                            859  c7                             884 
    x28       c6                             865  c2                             960 
    x28       c3                             599  c8                             827 
    x28       c0                             687  c4                             123 
    x28       c5                             959 
    x29       c8                             915  c9                             529 
    x29       c7                             958  c6                             661 
    x29       c0                             740  Obj                           1002 
    x29       c4                             544  c3                              17 
    x29       c2                             494  c5                             282 
    x29       c1                             833 
    x30       c0                             720  c6                             290 
    x30       c3                             989  c7                             784 
    x30       c1                             435  Obj                           1021 
    x30       c4                             735  c8                             263 
    x30       c9                             395  c5                             648 
    x30       c2                             273 
    x31       c7                             546  c4                              27 
    x31       c1                             294  c2                             624 
    x31       c0                             438  Obj                            620 
    x31       c6                              29  c8                              57 
    x31       c3                             950  c5                             915 
    x31       c9                             368 
    x32       c7                             626  c3                             982 
    x32       c4                              36  c6                             945 
    x32       c2                             180  c1                             689 
    x32       c5                             383  c9                             377 
    x32       c8                             344  c0                             681 
    x32       Obj                            764 
    x33       c2                             515  c0                             795 
    x33       c8                             973  c1                             252 
    x33       c3                             805  c9                             792 
    x33       Obj                            649  c4                             126 
    x33       c7                             698  c6                             413 
    x33       c5                             666 
    x34       c4                             654  c6                             859 
    x34       c9                             504  c0                             619 
    x34       c3                             226  c5                             142 
    x34       c7                             623  c2                             211 
    x34       Obj                            790  c1                              80 
    x34       c8                              61 
    x35       c4                             911  c5                              33 
    x35       c9                             503  c3                             312 
    x35       Obj                            867  c7                             746 
    x35       c8                              66  c2                             807 
    x35       c1                             627  c0                             522 
    x35       c6                             197 
    x36       c6                             318  c2                             483 
    x36       c1                              46  c9                             434 
    x36       c7                             836  c8                             973 
    x36       Obj                            557  c5                             479 
    x36       c4                             684  c3                             316 
    x36       c0                             198 
    x37       c4                             416  c9                             891 
    x37       c8                             431  c6                             408 
    x37       c2                             821  c1                             985 
    x37       Obj                            818  c5                             388 
    x37       c7                             542  c0                              87 
    x37       c3                             780 
    x38       c0                             185  Obj                            595 
    x38       c2                             366  c4                             720 
    x38       c1                             806  c6                             587 
    x38       c9                             239  c7                             263 
    x38       c8                               2  c5                             503 
    x38       c3                             480 
    x39       c8                             136  c6                             387 
    x39       Obj                            696  c0                             109 
    x39       c5                             122  c1                             686 
    x39       c7                             970  c2                             729 
    x39       c9                             329  c4                             216 
    x39       c3                             718 
    x40       c3                             151  c9                             567 
    x40       c7                             986  c1                             944 
    x40       c4                             791  c2                             369 
    x40       c6                             567  c0                              70 
    x40       c8                             472  c5                             767 
    x40       Obj                            697 
    x41       Obj                            518  c0                              67 
    x41       c8                             301  c7                             595 
    x41       c4                             346  c1                             392 
    x41       c6                             557  c5                             405 
    x41       c2                             355  c9                             649 
    x41       c3                             703 
    x42       c8                             231  c0                              46 
    x42       c9                             900  c5                             627 
    x42       c7                             909  Obj                            571 
    x42       c3                             792  c6                             367 
    x42       c2                             852  c1                              98 
    x42       c4                             476 
    x43       c1                             823  c8                             536 
    x43       c0                             258  c9                              29 
    x43       c6                             290  c3                             601 
    x43       c4                             953  Obj                            551 
    x43       c5                             597  c2                             505 
    x43       c7                             576 
    x44       c7                             700  Obj                            549 
    x44       c8                             562  c1                             369 
    x44       c2                             697  c0                             678 
    x44       c9                             314  c3                              97 
    x44       c6                             187  c4                             756 
    x44       c5                             762 
    x45       c5                             274  Obj                            452 
    x45       c1                             901  c2                             335 
    x45       c0                             261  c7                             962 
    x45       c4                             137  c9                              29 
    x45       c8                             337  c3                             385 
    x45       c6                             412 
    x46       c8                             326  c3                             418 
    x46       c6                             171  c5                             855 
    x46       c7                             228  c1                             148 
    x46       c2                             623  c9                             155 
    x46       c0                             791  c4                             408 
    x46       Obj                            705 
    x47       c3                             833  c1                             807 
    x47       c2                             644  c0                              33 
    x47       c4                             583  c6                             126 
    x47       c9                              98  c8                              29 
    x47       c5                             441  Obj                            532 
    x47       c7                             853 
    x48       c8                             114  Obj                           1048 
    x48       c6                             837  c4                             717 
    x48       c2                              77  c9                             977 
    x48       c7                             350  c0                             796 
    x48       c5                             798  c3                             526 
    x48       c1                             386 
    x49       c5                             954  c7                             636 
    x49       c3                             299  c0                             400 
    x49       c1                             440  c8                             325 
    x49       c9                               3  c4                             349 
    x49       c2                             304  Obj                            537 
    x49       c6                             499 
    x50       c3                             929  c8                             516 
    x50       c9                             835  c4                              86 
    x50       c2                             385  c7                             721 
    x50       c5                             763  c6                               6 
    x50       Obj                            675  c0                              88 
    x50       c1                             508 
    x51       c6                             590  c8                             276 
    x51       c2                             810  c7                             129 
    x51       c4                             888  c1                             322 
    x51       c3                             913  c0                             513 
    x51       c9                             714  c5                             219 
    x51       Obj                            734 
    x52       c3                             335  c8                             140 
    x52       c5                             908  c2                               5 
    x52       c7                             981  c6                             634 
    x52       c1                             322  c4                             732 
    x52       c0                             201  c9                             171 
    x52       Obj                            680 
    x53       c5                             632  c2                             141 
    x53       c6                             425  c0                             162 
    x53       c7                             432  c1                             534 
    x53       c4                             917  c3                             607 
    x53       Obj                            907  c9                             119 
    x53       c8                             333 
    x54       c1                             241  c8                             827 
    x54       c3                              68  c6                             340 
    x54       c5                             221  c0                             471 
    x54       c9                             476  Obj                            441 
    x54       c7                             968  c4                             389 
    x54       c2                             149 
    x55       c5                             270  c4                             878 
    x55       c9                             808  Obj                            932 
    x55       c6                             490  c0                             506 
    x55       c7                             586  c1                             981 
    x55       c2                             748  c8                             797 
    x55       c3                             231 
    x56       Obj                           1071  c4                             705 
    x56       c3                             820  c5                             271 
    x56       c8                             275  c0                             961 
    x56       c2                              57  c9                             923 
    x56       c1                             809  c7                             285 
    x56       c6                             940 
    x57       c6                              85  c5                             370 
    x57       c9                             389  c1                             693 
    x57       c8                             912  Obj                            564 
    x57       c2                             270  c3                             709 
    x57       c7                             536  c4                             321 
    x57       c0                             677 
    x58       c8                             713  c9                             594 
    x58       c0                             803  c4                             641 
    x58       Obj                            667  c3                             786 
    x58       c2                             153  c1                              62 
    x58       c5                             239  c6                              39 
    x58       c7                             416 
    x59       c5                             935  c3                             719 
    x59       c7                             644  c6                             483 
    x59       c9                             384  c1                             839 
    x59       c4                             690  c2                             884 
    x59       c8                             906  c0                             882 
    x59       Obj                           1081 
    x60       c6                             860  c1                             163 
    x60       c5                              87  c9                             717 
    x60       c8                             196  c0                               9 
    x60       c2                             119  c4                             645 
    x60       Obj                            728  c7                             870 
    x60       c3                             163 
    x61       c6                              52  c5                             579 
    x61       c2                             594  Obj                            613 
    x61       c9                               8  c8                             242 
    x61       c7                             378  c4                             918 
    x61       c3                             390  c1                             498 
    x61       c0                             309 
    x62       c2                             952  c6                             748 
    x62       c9                             713  c0                             924 
    x62       c5                             833  c8                             378 
    x62       c7                              39  c4                             203 
    x62       Obj                            718  c1                             878 
    x62       c3                             915 
    x63       Obj                            815  c4                             112 
    x63       c6                             381  c7                             695 
    x63       c2                             487  c8                             701 
    x63       c5                             167  c3                             556 
    x63       c9                             203  c0                              67 
    x63       c1                             937 
    x64       c2                             755  c7                             138 
    x64       c5                             235  c6                             394 
    x64       c9                             547  c8                             814 
    x64       c1                             373  c0                             700 
    x64       c3                             755  Obj                            531 
    x64       c4                             589 
    x65       c4                             916  c8                             244 
    x65       Obj                            687  c2                             599 
    x65       c3                             836  c6                              99 
    x65       c5                             944  c7                             671 
    x65       c1                             851  c9                             331 
    x65       c0                             621 
    x66       Obj                            383  c2                             106 
    x66       c6                               6  c9                             391 
    x66       c3                              46  c1                             849 
    x66       c5                             766  c7                             222 
    x66       c0                             121  c4                             102 
    x66       c8                             958 
    x67       c8                             604  c3                             262 
    x67       c7                             299  c5                             264 
    x67       c2                             620  c9                             863 
    x67       Obj                            598  c1                             750 
    x67       c4                             815  c0                             222 
    x67       c6                             117 
    x68       c7                             351  Obj                            412 
    x68       c9                             653  c0                              14 
    x68       c1                             257  c2                             594 
    x68       c6                             212  c4                             768 
    x68       c5                             128  c8                             498 
    x68       c3                             455 
    x69       c7                             350  c3                             566 
    x69       c0                             778  c1                             108 
    x69       c4                             758  c8                             726 
    x69       c5                             829  c9                              97 
    x69       Obj                            731  c6                             859 
    x69       c2                             142 
    x70       c7                             194  c6                             502 
    x70       c3                             247  c5                             511 
    x70       c8                             986  c2                             546 
    x70       c9                             399  Obj                            434 
    x70       c4                             142  c0                             236 
    x70       c1                             390 
    x71       c4                             605  c8                             819 
    x71       c3                             579  c0                             434 
    x71       c1                              73  c7                             509 
    x71       c6                             314  Obj                            523 
    x71       c5                              92  c2                             753 
    x71       c9                             536 
    x72       c0                              53  c3                             203 
    x72       Obj                            596  c1                              74 
    x72       c8                             207  c7                             908 
    x72       c5                             643  c2                             997 
    x72       c6                             992  c4                             119 
    x72       c9                             285 
    x73       c7                              14  c2                             562 
    x73       Obj                            641  c9                             413 
    x73       c1                             938  c3                             125 
    x73       c5                             469  c8                             249 
    x73       c6                             638  c0                              13 
    x73       c4                             182 
    x74       c2                             546  c5                             322 
    x74       c7                            1000  c6                             573 
    x74       c8                             647  c9                             195 
    x74       Obj                            814  c0                              55 
    x74       c3                              45  c4                             865 
    x74       c1                             278 
    x75       c6                             925  c7                             382 
    x75       c5                               8  c9                             809 
    x75       c8                             453  c2                             354 
    x75       Obj                            581  c4                             517 
    x75       c1                             776  c3                             614 
    x75       c0                              83 
    x76       Obj                            872  c5                             168 
    x76       c7                             750  c4                              39 
    x76       c2                             278  c6                             369 
    x76       c0                             330  c8                             170 
    x76       c9                             735  c3                             256 
    x76       c1                             831 
    x77       c1                             409  c5                             747 
    x77       c8                             575  c2                             156 
    x77       Obj                            849  c4                             791 
    x77       c3                             480  c9                              65 
    x77       c7                             677  c0                              41 
    x77       c6                              90 
    x78       c3                             492  c4                             818 
    x78       c8                             533  Obj                            677 
    x78       c6                               7  c2                             673 
    x78       c0                              82  c7                             989 
    x78       c9                             982  c1                             393 
    x78       c5                             592 
    x79       c5                             300  c9                              49 
    x79       c4                             936  c1                             476 
    x79       c8                             274  c0                             419 
    x79       c2                              88  c3                              31 
    x79       c6                             504  Obj                            595 
    x79       c7                             432 
    x80       c7                             784  c2                             499 
    x80       c6                             443  Obj                            817 
    x80       c5                             697  c9                             312 
    x80       c8                             712  c3                            1000 
    x80       c0                             412  c4                             920 
    x80       c1                             415 
    x81       c3                              55  c8                             783 
    x81       c6                             157  c4                             327 
    x81       c0                             545  c9                             416 
    x81       Obj                            731  c1                             589 
    x81       c5                             636  c7                             595 
    x81       c2                             209 
    x82       c2                             464  c1                             724 
    x82       c0                             828  c8                             558 
    x82       c9                             309  c6                             448 
    x82       c3                              87  c7                             464 
    x82       c5                             921  c4                             162 
    x82       Obj                            803 
    x83       Obj                            659  c3                             311 
    x83       c8                             544  c5                             728 
    x83       c4                              59  c1                             421 
    x83       c2                             947  c7                             664 
    x83       c6                             816  c0                              26 
    x83       c9                             534 
    x84       c2                             813  c5                              53 
    x84       c4                             395  c7                             740 
    x84       c6                             191  Obj                            666 
    x84       c9                             901  c0                             959 
    x84       c1                             416  c8                             219 
    x84       c3                             360 
    x85       c0                             103  c5                             401 
    x85       c3                             889  c6                             659 
    x85       c7                             654  c8                             929 
    x85       Obj                           1087  c9                             562 
    x85       c1                             258  c2                             886 
    x85       c4                             651 
    x86       c7                             217  Obj                            889 
    x86       c0                             925  c4                             845 
    x86       c1                             966  c3                              75 
    x86       c6                             179  c2                             560 
    x86       c8                             362  c9                             156 
    x86       c5                             696 
    x87       c0                             596  c7                             585 
    x87       c6                             554  Obj                            569 
    x87       c2                             943  c9                             122 
    x87       c5                             389  c1                             624 
    x87       c4                             494  c3                             370 
    x87       c8                             361 
    x88       c2                             904  c1                             455 
    x88       c4                             886  c6                             357 
    x88       c5                             374  Obj                            583 
    x88       c3                             424  c8                             566 
    x88       c9                             817  c0                             806 
    x88       c7                              53 
    x89       c1                             852  c9                             962 
    x89       c2                             577  c7                             252 
    x89       c0                             683  c8                             326 
    x89       Obj                            894  c5                             269 
    x89       c6                              31  c4                             520 
    x89       c3                             382 
    x90       c7                             830  c3                             684 
    x90       Obj                            919  c6                             735 
    x90       c0                             828  c8                             878 
    x90       c1                             861  c2                             235 
    x90       c4                             590  c9                             160 
    x90       c5                             366 
    x91       c5                             648  c6                             895 
    x91       c0                             862  c4                             680 
    x91       c7                             911  c2                             840 
    x91       c9                             880  c8                             736 
    x91       Obj                            989  c1                             696 
    x91       c3                             762 
    x92       c0                             822  c4                             775 
    x92       c1                             807  c9                             315 
    x92       c8                             728  c6                             853 
    x92       c3                             548  c5                             865 
    x92       Obj                            755  c2                             432 
    x92       c7                             535 
    x93       c0                             378  c8                             309 
    x93       Obj                            647  c9                             736 
    x93       c4                             946  c1                             774 
    x93       c5                             738  c3                             564 
    x93       c6                             432  c7                             466 
    x93       c2                             399 
    x94       c0                             646  c9                             720 
    x94       Obj                           1125  c4                             514 
    x94       c8                             827  c1                             963 
    x94       c6                             328  c7                             393 
    x94       c3                             792  c5                             536 
    x94       c2                             836 
    x95       Obj                            700  c1                             357 
    x95       c3                             960  c9                             189 
    x95       c4                             707  c0                              97 
    x95       c6                             423  c5                             167 
    x95       c8                             651  c2                             926 
    x95       c7                             726 
    x96       c8                             634  c3                             287 
    x96       c9                              21  c5                             115 
    x96       c4                             177  c0                             630 
    x96       c6                             459  c7                              69 
    x96       c2                             255  Obj                            422 
    x96       c1                             522 
    x97       c1                             284  c3                             995 
    x97       c4                             696  c9                             768 
    x97       c6                             254  c7                             967 
    x97       c0                             962  Obj                           1000 
    x97       c2                             980  c8                             277 
    x97       c5                             300 
    x98       c6                             806  Obj                            789 
    x98       c2                             920  c9                             986 
    x98       c5                             664  c0                             921 
    x98       c7                             675  c4                             156 
    x98       c8                             368  c1                             967 
    x98       c3                             301 
    x99       c3                             618  c4                             611 
    x99       c5                              33  c2                             174 
    x99       c8                             190  Obj                            752 
    x99       c0                             482  c7                             838 
    x99       c6                             302  c1                             431 
    x99       c9                             542 
    INTEND    'MARKER'                            'INTEND'                           
RHS
    RHS       c0                           35231  c1                           39240 
    RHS       c2                           40195  c3                           36290 
    RHS       c4                           40624  c5                           38124 
    RHS       c6                           35105  c7                           38802 
    RHS       c8                           36375  c9                           35741 
BOUNDS
 BV Bound     x0                                 
 BV Bound     x1                                 
 BV Bound     x2                                 
 BV Bound     x3                                 
 BV Bound     x4                                 
 BV Bound     x5                                 
 BV Bound     x6                                 
 BV Bound     x7                                 
 BV Bound     x8                                 
 BV Bound     x9                                 
 BV Bound     x10                                
 BV Bound     x11                                
 BV Bound     x12                                
 BV Bound     x13                                
 BV Bound     x14                                
 BV Bound     x15                                
 BV Bound     x16                                
 BV Bound     x17                                
 BV Bound     x18                                
 BV Bound     x19                                
 BV Bound     x20                                
 BV Bound     x21                                
 BV Bound     x22                                
 BV Bound     x23                                
 BV Bound     x24                                
 BV Bound     x25                                
 BV Bound     x26                                
 BV Bound     x27                                
 BV Bound     x28                                
 BV Bound     x29                                
 BV Bound     x30                                
 BV Bound     x31                                
 BV Bound     x32                                
 BV Bound     x33                                
 BV Bound     x34                                
 BV Bound     x35                                
 BV Bound     x36                                
 BV Bound     x37                                
 BV Bound     x38                                
 BV Bound     x39                                
 BV Bound     x40                                
 BV Bound     x41                                
 BV Bound     x42                                
 BV Bound     x43                                
 BV Bound     x44                                
 BV Bound     x45                                
 BV Bound     x46                                
 BV Bound     x47                                
 BV Bound     x48                                
 BV Bound     x49                                
 BV Bound     x50                                
 BV Bound     x51                                
 BV Bound     x52                                
 BV Bound     x53                                
 BV Bound     x54                                
 BV Bound     x55                                
 BV Bound     x56                                
 BV Bound     x57                                
 BV Bound     x58                                
 BV Bound     x59                                
 BV Bound     x60                                
 BV Bound     x61                                
 BV Bound     x62                                
 BV Bound     x63                                
 BV Bound     x64                                
 BV Bound     x65                                
 BV Bound     x66                                
 BV Bound     x67                                
 BV Bound     x68                                
 BV Bound     x69                                
 BV Bound     x70                                
 BV Bound     x71                                
 BV Bound     x72                                
 BV Bound     x73                                
 BV Bound     x74                                
 BV Bound     x75                                
 BV Bound     x76                                
 BV Bound     x77                                
 BV Bound     x78                                
 BV Bound     x79                                
 BV Bound     x80                                
 BV Bound     x81                                
 BV Bound     x82                                
 BV Bound     x83                                
 BV Bound     x84                                
 BV Bound     x85                                
 BV Bound     x86                                
 BV Bound     x87                                
 BV Bound     x88                                
 BV Bound     x89                                
 BV Bound     x90                                
 BV Bound     x91                                
 BV Bound     x92                                
 BV Bound     x93                                
 BV Bound     x94                                
 BV Bound     x95                                
 BV Bound     x96                                
 BV Bound     x97                                
 BV Bound     x98                                
 BV Bound     x99                                
ENDATA