* SCIP STATISTICS
*   Problem name     : mknap_24
*   Variables        : 100 (100 binary, 0 integer, 0 implicit integer, 0 continuous)
*   Constraints      : 10
NAME          mknap_24
OBJSENSE
  MAX
ROWS
 N  Obj 
 L  c0 
 L  c1 
 L  c2 
 L  c3 
 L  c4 
 L  c5 
 L  c6 
 L  c7 
 L  c8 
 L  c9 
COLUMNS
    INTSTART  'MARKER'                            'INTORG'                           
    x0        Obj                            949  c5                             914 
    x0        c4                             962  c6                             414 
    x0        c3                             624  c7                             511 
    x0        c2                             794  c8                             647 
    x0        c1                             183  c9                             364 
    x0        c0                             322 
    x1        Obj                            754  c5                             120 
    x1        c4                             780  c6                             618 
    x1        c3                             509  c7                             555 
    x1        c2                             939  c8                               8 
    x1        c1                             694  c9                             707 
    x1        c0                             764 
    x2        c9                             724  c5                             340 
    x2        Obj                           1040  c3                             962 
    x2        c1                             671  c4                             543 
    x2        c0                             350  c8                             204 
    x2        c7                             933  c2                             699 
    x2        c6                             837 
    x3        c9                             645  c8                             898 
    x3        c2                             516  c1                             834 
    x3        c6                              85  c7                             952 
    x3        c3                             322  Obj                            911 
    x3        c4                             762  c0                             539 
    x3        c5                             645 
    x4        c4                             827  c3                             355 
    x4        c0                             319  c6                             108 
    x4        Obj                            731  c1                              24 
    x4        c7                             468  c2                             181 
    x4        c5                             961  c8                             349 
    x4        c9                             278 
    x5        c8                             238  c3                             657 
    x5        c1                             238  c5                             995 
    x5        c6                             106  c7                             654 
    x5        Obj                            580  c4                             965 
    x5        c0                             810  c9                              70 
    x5        c2                             273 
    x6        Obj                            626  c3                             479 
    x6        c8                             692  c4                             587 
    x6        c0                             996  c7                             373 
    x6        c5                             296  c9                             154 
    x6        c1                             100  c2                             170 
    x6        c6                             311 
    x7        c9                             566  c5                             194 
    x7        c1                             806  c7                             545 
    x7        c2                             720  c4                             935 
    x7        Obj                            784  c8                             742 
    x7        c0                             713  c3                             346 
    x7        c6                             218 
    x8        c5                             287  c7                             458 
    x8        c2                             138  c4                              40 
    x8        c1                             100  c6                             506 
    x8        c0                             982  c8                             156 
    x8        Obj                            777  c3                             477 
    x8        c9                             215 
    x9        c9                             353  c4                             142 
    x9        c8                             168  c6                             515 
    x9        c0                             495  Obj                            579 
    x9        c1                             330  c3                             997 
    x9        c7                             295  c5                             706 
    x9        c2                             922 
    x10       c9                             830  c3                             338 
    x10       Obj                            744  c4                             494 
    x10       c8                             772  c6                             495 
    x10       c0                             389  c5                              23 
    x10       c7                             816  c2                             901 
    x10       c1                             437 
    x11       c1                             532  c8                             276 
    x11       c0                             175  c9                              58 
    x11       c2                             440  c7                             679 
    x11       c3                              60  c6                             945 
    x11       c4                             539  c5                             863 
    x11       Obj                            579 
    x12       Obj                            462  c5                             970 
    x12       c3                             819  c1                              14 
    x12       c7                             225  c9                             920 
    x12       c8                             272  c0                             894 
    x12       c6                               4  c2                             167 
    x12       c4                             186 
    x13       c5                             641  c8                             779 
    x13       c3                             290  c7                             688 
    x13       c9                             673  c0                             959 
    x13       c1                             335  c6                             512 
    x13       c2                             983  c4                             114 
    x13       Obj                           1030 
    x14       Obj                            676  c4                             709 
    x14       c5                             891  c6                             207 
    x14       c7                             893  c1                             872 
    x14       c2                             410  c0                              26 
    x14       c3                             415  c9                             414 
    x14       c8                             955 
    x15       c9                             613  c1                             260 
    x15       c2                             798  c7                             673 
    x15       c6                             537  c8                             644 
    x15       Obj                            849  c3                             759 
    x15       c0                             326  c5                             275 
    x15       c4                             374 
    x16       c3                             627  Obj                           1059 
    x16       c5                             986  c9                             860 
    x16       c1                             354  c4                             836 
    x16       c7                             267  c6                             846 
    x16       c0                             528  c8                             976 
    x16       c2                             305 
    x17       c7                             954  c3                             180 
    x17       c9                             538  Obj                           1047 
    x17       c4                             782  c2                             608 
    x17       c1                             941  c5                             304 
    x17       c6                             238  c0                             823 
    x17       c8                             921 
    x18       c8                             109  c1                             578 
    x18       c5                             707  c6                             485 
    x18       c0                             568  c3                             577 
    x18       c9                             428  Obj                            732 
    x18       c7                             171  c2                             228 
    x18       c4                             455 
    x19       Obj                            761  c5                             915 
    x19       c8                             272  c0                             533 
    x19       c9                             916  c2                             774 
    x19       c6                             790  c3                             600 
    x19       c4                             454  c7                             732 
    x19       c1                             213 
    x20       c1                             810  c7                             893 
    x20       c3                             688  c4                             861 
    x20       Obj                            892  c9                             458 
    x20       c8                             477  c0                             486 
    x20       c5                             147  c2                             658 
    x20       c6                             873 
    x21       c9                             512  c1                             201 
    x21       c2                             231  c4                             870 
    x21       Obj                            466  c5                             362 
    x21       c0                             437  c6                             222 
    x21       c3                             324  c8                             300 
    x21       c7                             845 
    x22       c8                             698  Obj                            851 
    x22       c0                             186  c1                             676 
    x22       c9                             463  c2                              27 
    x22       c5                             237  c7                              81 
    x22       c4                             956  c3                             501 
    x22       c6                             860 
    x23       c8                             197  c6                             147 
    x23       c0                             800  Obj                            742 
    x23       c9                             801  c1                             713 
    x23       c2                             980  c5                              98 
    x23       c7                             458  c4                             310 
    x23       c3                             147 
    x24       c3                             237  c0                             720 
    x24       c6                             528  c9                             243 
    x24       Obj                            732  c1                             481 
    x24       c7                             750  c2                             181 
    x24       c4                              96  c5                             682 
    x24       c8                             396 
    x25       c9                             569  c0                              35 
    x25       c3                             964  c1                             682 
    x25       c7                             338  c8                             648 
    x25       Obj                            943  c6                              52 
    x25       c5                             478  c4                             700 
    x25       c2                             353 
    x26       Obj                            890  c5                             368 
    x26       c9                             500  c2                             452 
    x26       c0                             686  c3                             552 
    x26       c7                              73  c8                             312 
    x26       c4                             643  c1                             796 
    x26       c6                              11 
    x27       c5                             608  c0                             679 
    x27       c3                             577  Obj                            619 
    x27       c7                             290  c6                             768 
    x27       c1                             315  c8                             640 
    x27       c9                             556  c4                             278 
    x27       c2                             457 
    x28       c1                             740  c9                             291 
    x28       Obj                            969  c7                             801 
    x28       c6                             288  c2                             946 
    x28       c3                             964  c8                             291 
    x28       c0                             518  c4                             510 
    x28       c5                             809 
    x29       c8                             598  c9                             375 
    x29       c7                             609  c6                              50 
    x29       c0                             967  Obj                            661 
    x29       c4                             172  c3                             668 
    x29       c2                             352  c5                             320 
    x29       c1                              54 
    x30       c0                              43  c6                             248 
    x30       c3                              81  c7                             363 
    x30       c1                             612  Obj                            640 
    x30       c4                             838  c8                             256 
    x30       c9                             603  c5                             690 
    x30       c2                             129 
    x31       c7                             195  c4                             428 
    x31       c1                               1  c2                             397 
    x31       c0                             228  Obj                            819 
    x31       c6                             180  c8                             537 
    x31       c3                             521  c5                             780 
    x31       c9                             193 
    x32       c7                             602  c3                             396 
    x32       c4                             968  c6                             370 
    x32       c2                             863  c1                             811 
    x32       c5                             155  c9                             952 
    x32       c8                             430  c0                             932 
    x32       Obj                            659 
    x33       c2                             474  c0                             852 
    x33       c8                             631  c1                             123 
    x33       c3                             535  c9                             526 
    x33       Obj                            552  c4                             128 
    x33       c7                             371  c6                             884 
    x33       c5                             158 
    x34       c4                             790  c6                             978 
    x34       c9                             106  c0                             934 
    x34       c3                             142  c5                             879 
    x34       c7                             433  c2                             878 
    x34       Obj                            922  c1                             581 
    x34       c8                             952 
    x35       c4                             277  c5                             442 
    x35       c9                             404  c3                             743 
    x35       Obj                            865  c7                             544 
    x35       c8                             737  c2                             227 
    x35       c1                             345  c0                             834 
    x35       c6                             977 
    x36       c6                             991  c2                             997 
    x36       c1                             979  c9                              91 
    x36       c7                             258  c8                             895 
    x36       Obj                           1057  c5                             870 
    x36       c4                             334  c3                             308 
    x36       c0                             273 
    x37       c4                             628  c9                             666 
    x37       c8                             847  c6                             154 
    x37       c2                             814  c1                             333 
    x37       Obj                            996  c5                              58 
    x37       c7                             935  c0                             613 
    x37       c3                             588 
    x38       c0                              70  Obj                            382 
    x38       c2                             184  c4                             190 
    x38       c1                             938  c6                             848 
    x38       c9                             314  c7                              38 
    x38       c8                             549  c5                             236 
    x38       c3                             400 
    x39       c8                              98  c6                             761 
    x39       Obj                            851  c0                             518 
    x39       c5                             938  c1                             773 
    x39       c7                             722  c2                             583 
    x39       c9                             420  c4                             244 
    x39       c3                             556 
    x40       c3                             266  c9                               1 
    x40       c7                             130  c1                             265 
    x40       c4                             606  c2                             206 
    x40       c6                             352  c0                              30 
    x40       c8                             310  c5                              35 
    x40       Obj                            410 
    x41       Obj                            661  c0                              95 
    x41       c8                             189  c7                             126 
    x41       c4                             185  c1                             347 
    x41       c6                             856  c5                             993 
    x41       c2                             748  c9                             198 
    x41       c3                             517 
    x42       c8                             943  c0                              46 
    x42       c9                             611  c5                             350 
    x42       c7                             333  Obj                            683 
    x42       c3                             133  c6                             317 
    x42       c2                             718  c1                             597 
    x42       c4                             257 
    x43       c1                              38  c8                             202 
    x43       c0                              46  c9                             217 
    x43       c6                             380  c3                             883 
    x43       c4                             311  Obj                            753 
    x43       c5                             429  c2                             120 
    x43       c7                             888 
    x44       c7                             897  Obj                            623 
    x44       c8                             662  c1                             646 
    x44       c2                              79  c0                             999 
    x44       c9                             424  c3                             490 
    x44       c6                             562  c4                             926 
    x44       c5                             359 
    x45       c5                             200  Obj                            640 
    x45       c1                             287  c2                             361 
    x45       c0                             716  c7                             550 
    x45       c4                             258  c9                             604 
    x45       c8                             316  c3                             722 
    x45       c6                             532 
    x46       c8                              82  c3                             881 
    x46       c6                             737  c5                             358 
    x46       c7                             283  c1                             594 
    x46       c2                             925  c9                              80 
    x46       c0                              44  c4                             746 
    x46       Obj                            684 
    x47       c3                             767  c1                             914 
    x47       c2                             246  c0                             324 
    x47       c4                             684  c6                             199 
    x47       c9                             799  c8                             471 
    x47       c5                             688  Obj                            656 
    x47       c7                             407 
    x48       c8                             580  Obj                            871 
    x48       c6                             420  c4                             537 
    x48       c2                             738  c9                             386 
    x48       c7                             822  c0                             843 
    x48       c5                             551  c3                             384 
    x48       c1                             125 
    x49       c5                             322  c7                             150 
    x49       c3                             331  c0                              55 
    x49       c1                             785  c8                             875 
    x49       c9                             848  c4                             872 
    x49       c2                             525  Obj                           1005 
    x49       c6                             812 
    x50       c3                             644  c8                             440 
    x50       c9                             818  c4                             375 
    x50       c2                             757  c7                             939 
    x50       c5                             769  c6                             622 
    x50       Obj                            985  c0                             451 
    x50       c1                             277 
    x51       c6                             100  c8                             993 
    x51       c2                             954  c7                             162 
    x51       c4                             526  c1                             582 
    x51       c3                             253  c0                             929 
    x51       c9                             697  c5                             279 
    x51       Obj                            588 
    x52       c3                             908  c8                             389 
    x52       c5                             214  c2                             280 
    x52       c7                             685  c6                             441 
    x52       c1                             405  c4                             377 
    x52       c0                             907  c9                             524 
    x52       Obj                            549 
    x53       c5                             673  c2                             150 
    x53       c6                             422  c0                             659 
    x53       c7                             213  c1                             618 
    x53       c4                             766  c3                             712 
    x53       Obj                            798  c9                              99 
    x53       c8                             516 
    x54       c1                             947  c8                             840 
    x54       c3                             930  c6                             431 
    x54       c5                             664  c0                             932 
    x54       c9                             677  Obj                            929 
    x54       c7                             918  c4                             237 
    x54       c2                             148 
    x55       c5                             713  c4                             503 
    x55       c9                             972  Obj                            949 
    x55       c6                             301  c0                             194 
    x55       c7                             337  c1                             801 
    x55       c2                             456  c8                              91 
    x55       c3                             821 
    x56       Obj                            877  c4                             992 
    x56       c3                             311  c5                             542 
    x56       c8                             623  c0                             316 
    x56       c2                             104  c9                             675 
    x56       c1                             943  c7                             809 
    x56       c6                             803 
    x57       c6                             452  c5                             562 
    x57       c9                             655  c1                             665 
    x57       c8                             815  Obj                           1080 
    x57       c2                             728  c3                             921 
    x57       c7                             843  c4                             532 
    x57       c0                             193 
    x58       c8                             356  c9                             933 
    x58       c0                             165  c4                             690 
    x58       Obj                            737  c3                             141 
    x58       c2                             766  c1                              91 
    x58       c5                             837  c6                             976 
    x58       c7                             647 
    x59       c5                             949  c3                             375 
    x59       c7                             793  c6                             693 
    x59       c9                             456  c1                             974 
    x59       c4                             492  c2                             477 
    x59       c8                             407  c0                             372 
    x59       Obj                            801 
    x60       c6                             310  c1                              63 
    x60       c5                             303  c9                             643 
    x60       c8                             283  c0                             620 
    x60       c2                             242  c4                             766 
    x60       Obj                            789  c7                             997 
    x60       c3                             769 
    x61       c6                              69  c5                              55 
    x61       c2                             395  Obj                            663 
    x61       c9                             983  c8                             796 
    x61       c7                             837  c4                             859 
    x61       c3                             188  c1                              96 
    x61       c0                             381 
    x62       c2                              50  c6                             797 
    x62       c9                             198  c0                             104 
    x62       c5                             192  c8                             950 
    x62       c7                             983  c4                             237 
    x62       Obj                            934  c1                             971 
    x62       c3                             395 
    x63       Obj                            992  c4                              68 
    x63       c6                             668  c7                             878 
    x63       c2                             688  c8                             900 
    x63       c5                             903  c3                             592 
    x63       c9                             215  c0                              78 
    x63       c1                             303 
    x64       c2                             867  c7                             851 
    x64       c5                             315  c6                             783 
    x64       c9                             671  c8                             797 
    x64       c1                             586  c0                             791 
    x64       c3                             209  Obj                           1014 
    x64       c4                             697 
    x65       c4                             189  c8                              19 
    x65       Obj                            881  c2                             610 
    x65       c3                             850  c6                             805 
    x65       c5                             986  c7                             521 
    x65       c1                             812  c9                             597 
    x65       c0                             160 
    x66       Obj                            402  c2                             123 
    x66       c6                             237  c9                             270 
    x66       c3                             135  c1                             258 
    x66       c5                             420  c7                             493 
    x66       c0                              50  c4                             789 
    x66       c8                             624 
    x67       c8                               9  c3                             674 
    x67       c7                             235  c5                             939 
    x67       c2                             210  c9                             515 
    x67       Obj                            487  c1                             897 
    x67       c4                              15  c0                             922 
    x67       c6                             392 
    x68       c7                             440  Obj                            985 
    x68       c9                             551  c0                             910 
    x68       c1                             444  c2                             958 
    x68       c6                             856  c4                             937 
    x68       c5                             493  c8                              84 
    x68       c3                             497 
    x69       c7                             406  c3                             424 
    x69       c0                             116  c1                             399 
    x69       c4                             634  c8                             603 
    x69       c5                              63  c9                             545 
    x69       Obj                            515  c6                             704 
    x69       c2                             621 
    x70       c7                             779  c6                              83 
    x70       c3                             639  c5                             213 
    x70       c8                             158  c2                             603 
    x70       c9                             596  Obj                            479 
    x70       c4                             139  c0                             327 
    x70       c1                             562 
    x71       c4                             654  c8                             223 
    x71       c3                              52  c0                             515 
    x71       c1                             452  c7                             837 
    x71       c6                             755  Obj                            554 
    x71       c5                             469  c2                             677 
    x71       c9                             498 
    x72       c0                             964  c3                             439 
    x72       Obj                            660  c1                             486 
    x72       c8                             311  c7                             606 
    x72       c5                             933  c2                              54 
    x72       c6                             894  c4                             175 
    x72       c9                             508 
    x73       c7                             440  c2                             726 
    x73       Obj                            920  c9                             460 
    x73       c1                              45  c3                             605 
    x73       c5                             695  c8                             292 
    x73       c6                             241  c0                             625 
    x73       c4                             819 
    x74       c2                             959  c5                             198 
    x74       c7                              25  c6                             903 
    x74       c8                             428  c9                             261 
    x74       Obj                            509  c0                              48 
    x74       c3                             539  c4                             585 
    x74       c1                             977 
    x75       c6                             194  c7                             531 
    x75       c5                             118  c9                             848 
    x75       c8                              72  c2                             782 
    x75       Obj                            624  c4                             534 
    x75       c1                             816  c3                             990 
    x75       c0                             470 
    x76       Obj                            819  c5                             317 
    x76       c7                             111  c4                             168 
    x76       c2                             310  c6                             965 
    x76       c0                             257  c8                             846 
    x76       c9                              13  c3                             180 
    x76       c1                             562 
    x77       c1                            1000  c5                             179 
    x77       c8                             350  c2                             811 
    x77       Obj                            656  c4                             935 
    x77       c3                             217  c9                              24 
    x77       c7                             886  c0                             546 
    x77       c6                             884 
    x78       c3                             209  c4                             816 
    x78       c8                             366  Obj                            921 
    x78       c6                             553  c2                             770 
    x78       c0                             786  c7                              18 
    x78       c9                             834  c1                             148 
    x78       c5                             117 
    x79       c5                             784  c9                             672 
    x79       c4                             804  c1                             182 
    x79       c8                             321  c0                             416 
    x79       c2                             715  c3                             291 
    x79       c6                             511  Obj                            819 
    x79       c7                             742 
    x80       c7                             586  c2                             237 
    x80       c6                             959  Obj                            895 
    x80       c5                             880  c9                             128 
    x80       c8                             932  c3                             338 
    x80       c0                             746  c4                             869 
    x80       c1                             494 
    x81       c3                             880  c8                             357 
    x81       c6                              77  c4                             886 
    x81       c0                             550  c9                             229 
    x81       Obj                            704  c1                             644 
    x81       c5                             495  c7                             436 
    x81       c2                             336 
    x82       c2                              51  c1                             482 
    x82       c0                             949  c8                              43 
    x82       c9                             266  c6                             209 
    x82       c3                             712  c7                              73 
    x82       c5                             685  c4                             419 
    x82       Obj                            654 
    x83       Obj                            699  c3                             956 
    x83       c8                              80  c5                              60 
    x83       c4                             520  c1                             955 
    x83       c2                             650  c7                             256 
    x83       c6                             299  c0                             740 
    x83       c9                             378 
    x84       c2                             443  c5                             239 
    x84       c4                             992  c7                             848 
    x84       c6                             585  Obj                            611 
    x84       c9                             471  c0                             623 
    x84       c1                              74  c8                             957 
    x84       c3                             624 
    x85       c0                             352  c5                             554 
    x85       c3                             889  c6                             511 
    x85       c7                             279  c8                             411 
    x85       Obj                            439  c9                             187 
    x85       c1                             122  c2                             770 
    x85       c4                              81 
    x86       c7                             513  Obj                            550 
    x86       c0                             282  c4                             861 
    x86       c1                             961  c3                             155 
    x86       c6                              30  c2                             390 
    x86       c8                             457  c9                             545 
    x86       c5                             950 
    x87       c0                             665  c7                             430 
    x87       c6                               5  Obj                            429 
    x87       c2                               7  c9                             963 
    x87       c5                             207  c1                              38 
    x87       c4                             433  c3                             593 
    x87       c8                             685 
    x88       c2                             884  c1                             402 
    x88       c4                             334  c6                             338 
    x88       c5                             923  Obj                            843 
    x88       c3                             397  c8                             899 
    x88       c9                              16  c0                             562 
    x88       c7                             539 
    x89       c1                             397  c9                             676 
    x89       c2                             116  c7                             148 
    x89       c0                             990  c8                             340 
    x89       Obj                            807  c5                             311 
    x89       c6                             772  c4                             870 
    x89       c3                             306 
    x90       c7                             263  c3                             785 
    x90       Obj                            986  c6                             261 
    x90       c0                             666  c8                             503 
    x90       c1                             619  c2                             620 
    x90       c4                             610  c9                             398 
    x90       c5                             222 
    x91       c5                             281  c6                             848 
    x91       c0                             780  c4                             443 
    x91       c7                             348  c2                             635 
    x91       c9                             104  c8                             674 
    x91       Obj                            651  c1                             515 
    x91       c3                             478 
    x92       c0                             592  c4                             136 
    x92       c1                              98  c9                             330 
    x92       c8                             729  c6                             202 
    x92       c3                             237  c5                             746 
    x92       Obj                            632  c2                             110 
    x92       c7                             139 
    x93       c0                             337  c8                             640 
    x93       Obj                           1062  c9                             869 
    x93       c4                             964  c1                             966 
    x93       c5                              61  c3                             279 
    x93       c6                             984  c7                             871 
    x93       c2                              82 
    x94       c0                             429  c9                             597 
    x94       Obj                            992  c4                             592 
    x94       c8                             493  c1                             686 
    x94       c6                             718  c7                             992 
    x94       c3                             134  c5                             646 
    x94       c2                             658 
    x95       Obj                            678  c1                             487 
    x95       c3                             727  c9                             200 
    x95       c4                             923  c0                             635 
    x95       c6                             344  c5                             673 
    x95       c8                             635  c2                             172 
    x95       c7                             677 
    x96       c8                             444  c3                             143 
    x96       c9                             648  c5                             426 
    x96       c4                             791  c0                             713 
    x96       c6                              71  c7                              48 
    x96       c2                              12  Obj                            653 
    x96       c1                             908 
    x97       c1                             640  c3                             310 
    x97       c4                             235  c9                             391 
    x97       c6                             876  c7                             541 
    x97       c0                             705  Obj                            650 
    x97       c2                             206  c8                             162 
    x97       c5                              15 
    x98       c6                             245  Obj                            786 
    x98       c2                             417  c9                              65 
    x98       c5                             813  c0                             873 
    x98       c7                             210  c4                             444 
    x98       c8                             620  c1                             710 
    x98       c3                             348 
    x99       c3                             595  c4                             215 
    x99       c5                             313  c2                             450 
    x99       c8                              36  Obj                            574 
    x99       c0                             269  c7                             936 
    x99       c6                             243  c1                             315 
    x99       c9                             972 
    INTEND    'MARKER'                            'INTEND'                           
RHS
    RHS       c0                           39137  c1                           38215 
    RHS       c2                           36789  c3                           37841 
    RHS       c4                           41263  c5                           37520 
    RHS       c6                           37167  c7                           39842 
    RHS       c8                           36897  c9                           36284 
BOUNDS
 BV Bound     x0                                 
 BV Bound     x1                                 
 BV Bound     x2                                 
 BV Bound     x3                                 
 BV Bound     x4                                 
 BV Bound     x5                                 
 BV Bound     x6                                 
 BV Bound     x7                                 
 BV Bound     x8                                 
 BV Bound     x9                                 
 BV Bound     x10                                
 BV Bound     x11                                
 BV Bound     x12                                
 BV Bound     x13                                
 BV Bound     x14                                
 BV Bound     x15                                
 BV Bound     x16                                
 BV Bound     x17                                
 BV Bound     x18                                
 BV Bound     x19                                
 BV Bound     x20                                
 BV Bound     x21                                
 BV Bound     x22                                
 BV Bound     x23                                
 BV Bound     x24                                
 BV Bound     x25                                
 BV Bound     x26                                
 BV Bound     x27                                
 BV Bound     x28                                
 BV Bound     x29                                
 BV Bound     x30                                
 BV Bound     x31                                
 BV Bound     x32                                
 BV Bound     x33                                
 BV Bound     x34                                
 BV Bound     x35                                
 BV Bound     x36                                
 BV Bound     x37                                
 BV Bound     x38                                
 BV Bound     x39                                
 BV Bound     x40                                
 BV Bound     x41                                
 BV Bound     x42                                
 BV Bound     x43                                
 BV Bound     x44                                
 BV Bound     x45                                
 BV Bound     x46                                
 BV Bound     x47                                
 BV Bound     x48                                
 BV Bound     x49                                
 BV Bound     x50                                
 BV Bound     x51                                
 BV Bound     x52                                
 BV Bound     x53                                
 BV Bound     x54                                
 BV Bound     x55                                
 BV Bound     x56                                
 BV Bound     x57                                
 BV Bound     x58                                
 BV Bound     x59                                
 BV Bound     x60                                
 BV Bound     x61                                
 BV Bound     x62                                
 BV Bound     x63                                
 BV Bound     x64                                
 BV Bound     x65                                
 BV Bound     x66                                
 BV Bound     x67                                
 BV Bound     x68                                
 BV Bound     x69                                
 BV Bound     x70                                
 BV Bound     x71                                
 BV Bound     x72                                
 BV Bound     x73                                
 BV Bound     x74                                
 BV Bound     x75                                
 BV Bound     x76                                
 BV Bound     x77                                
 BV Bound     x78                                
 BV Bound     x79                                
 BV Bound     x80                                
 BV Bound     x81                                
 BV Bound     x82                                
 BV Bound     x83                                
 BV Bound     x84                                
 BV Bound     x85                                
 BV Bound     x86                                
 BV Bound     x87                                
 BV Bound     x88                                
 BV Bound     x89                                
 BV Bound     x90                                
 BV Bound     x91                                
 BV Bound     x92                                
 BV Bound     x93                                
 BV Bound     x94                                
 BV Bound     x95                                
 BV Bound     x96                                
 BV Bound     x97                                
 BV Bound     x98                                
 BV Bound     x99                                
ENDATA