* SCIP STATISTICS
*   Problem name     : mknap_11
*   Variables        : 100 (100 binary, 0 integer, 0 implicit integer, 0 continuous)
*   Constraints      : 10
NAME          mknap_11
OBJSENSE
  MAX
ROWS
 N  Obj 
 L  c0 
 L  c1 
 L  c2 
 L  c3 
 L  c4 
 L  c5 
 L  c6 
 L  c7 
 L  c8 
 L  c9 
COLUMNS
    INTSTART  'MARKER'                            'INTORG'                           
    x0        Obj                            828  c5                             365 
    x0        c4                              31  c6                              35 
    x0        c3                              24  c7                             379 
    x0        c2                             523  c8                             614 
    x0        c1                             692  c9                             760 
    x0        c0                             812 
    x1        Obj                            847  c5                             848 
    x1        c4                             195  c6                             800 
    x1        c3                             980  c7                             525 
    x1        c2                              62  c8                             188 
    x1        c1                             326  c9                             391 
    x1        c0                             823 
    x2        c9                             244  c5                             960 
    x2        Obj                            661  c3                             777 
    x2        c1                             865  c4                             753 
    x2        c0                              11  c8                             230 
    x2        c7                             653  c2                             968 
    x2        c6                             622 
    x3        c9                             531  c8                             606 
    x3        c2                             286  c1                             632 
    x3        c6                             334  c7                             170 
    x3        c3                             855  Obj                            821 
    x3        c4                             258  c0                             101 
    x3        c5                             107 
    x4        c4                             505  c3                             775 
    x4        c0                             635  c6                             837 
    x4        Obj                            991  c1                             579 
    x4        c7                             117  c2                             502 
    x4        c5                             516  c8                             743 
    x4        c9                             415 
    x5        c8                             614  c3                             137 
    x5        c1                             751  c5                             180 
    x5        c6                             145  c7                             247 
    x5        Obj                            474  c4                             428 
    x5        c0                             908  c9                             406 
    x5        c2                             399 
    x6        Obj                            801  c3                              52 
    x6        c8                             765  c4                             369 
    x6        c0                             472  c7                             970 
    x6        c5                             328  c9                             539 
    x6        c1                             793  c2                             587 
    x6        c6                             121 
    x7        c9                             104  c5                             910 
    x7        c1                             929  c7                             328 
    x7        c2                             199  c4                             620 
    x7        Obj                            706  c8                             269 
    x7        c0                             614  c3                             301 
    x7        c6                             617 
    x8        c5                             417  c7                             150 
    x8        c2                             648  c4                              10 
    x8        c1                             425  c6                              66 
    x8        c0                             501  c8                             944 
    x8        Obj                            543  c3                              81 
    x8        c9                             904 
    x9        c9                             512  c4                              48 
    x9        c8                             360  c6                             114 
    x9        c0                             804  Obj                            607 
    x9        c1                             303  c3                             905 
    x9        c7                             394  c5                             526 
    x9        c2                             249 
    x10       c9                             741  c3                             342 
    x10       Obj                            849  c4                             464 
    x10       c8                             158  c6                             250 
    x10       c0                             187  c5                             693 
    x10       c7                             957  c2                             352 
    x10       c1                             531 
    x11       c1                             933  c8                             186 
    x11       c0                             987  c9                             918 
    x11       c2                             268  c7                             975 
    x11       c3                             992  c6                             771 
    x11       c4                             889  c5                             105 
    x11       Obj                            802 
    x12       Obj                            722  c5                             819 
    x12       c3                             168  c1                             234 
    x12       c7                             836  c9                              99 
    x12       c8                               7  c0                              82 
    x12       c6                             548  c2                             612 
    x12       c4                             838 
    x13       c5                             275  c8                             746 
    x13       c3                             254  c7                             862 
    x13       c9                              63  c0                              74 
    x13       c1                              84  c6                             565 
    x13       c2                             904  c4                             106 
    x13       Obj                            563 
    x14       Obj                            904  c4                             587 
    x14       c5                             310  c6                             644 
    x14       c7                             699  c1                             131 
    x14       c2                             293  c0                             336 
    x14       c3                             638  c9                             501 
    x14       c8                              57 
    x15       c9                             703  c1                             408 
    x15       c2                             872  c7                              57 
    x15       c6                             408  c8                             308 
    x15       Obj                            565  c3                             534 
    x15       c0                             512  c5                             951 
    x15       c4                             282 
    x16       c3                             661  Obj                           1084 
    x16       c5                             811  c9                             934 
    x16       c1                             852  c4                             424 
    x16       c7                             964  c6                             819 
    x16       c0                             572  c8                             722 
    x16       c2                             396 
    x17       c7                             921  c3                             726 
    x17       c9                             349  Obj                            805 
    x17       c4                             771  c2                             500 
    x17       c1                             913  c5                             590 
    x17       c6                             330  c0                             818 
    x17       c8                             359 
    x18       c8                             687  c1                             288 
    x18       c5                             995  c6                             411 
    x18       c0                             599  c3                             129 
    x18       c9                             213  Obj                            837 
    x18       c7                             835  c2                             186 
    x18       c4                             958 
    x19       Obj                            481  c5                             536 
    x19       c8                             309  c0                             792 
    x19       c9                             210  c2                             629 
    x19       c6                             423  c3                             541 
    x19       c4                             475  c7                               7 
    x19       c1                             419 
    x20       c1                              23  c7                             242 
    x20       c3                             618  c4                             112 
    x20       Obj                            612  c9                             151 
    x20       c8                             301  c0                             926 
    x20       c5                             916  c2                             982 
    x20       c6                             143 
    x21       c9                             430  c1                             507 
    x21       c2                             626  c4                             100 
    x21       Obj                            622  c5                             730 
    x21       c0                             660  c6                             332 
    x21       c3                             658  c8                             813 
    x21       c7                             994 
    x22       c8                             817  Obj                            689 
    x22       c0                             270  c1                             477 
    x22       c9                             531  c2                             529 
    x22       c5                             341  c7                             810 
    x22       c4                              56  c3                             962 
    x22       c6                             538 
    x23       c8                             369  c6                             112 
    x23       c0                             465  Obj                            948 
    x23       c9                             605  c1                             623 
    x23       c2                             554  c5                             652 
    x23       c7                             423  c4                             608 
    x23       c3                             847 
    x24       c3                             470  c0                             296 
    x24       c6                             627  c9                             368 
    x24       Obj                            865  c1                             272 
    x24       c7                            1000  c2                             593 
    x24       c4                            1000  c5                             911 
    x24       c8                             268 
    x25       c9                             793  c0                              12 
    x25       c3                             897  c1                             750 
    x25       c7                             840  c8                             510 
    x25       Obj                            827  c6                             977 
    x25       c5                             746  c4                             584 
    x25       c2                             544 
    x26       Obj                            745  c5                             742 
    x26       c9                             130  c2                             123 
    x26       c0                             373  c3                             525 
    x26       c7                             327  c8                             632 
    x26       c4                              32  c1                             411 
    x26       c6                             964 
    x27       c5                             462  c0                             787 
    x27       c3                             775  Obj                            828 
    x27       c7                             340  c6                             677 
    x27       c1                             895  c8                             701 
    x27       c9                              84  c4                             935 
    x27       c2                             396 
    x28       c1                             229  c9                             254 
    x28       Obj                            931  c7                             743 
    x28       c6                             702  c2                             971 
    x28       c3                             703  c8                              14 
    x28       c0                               4  c4                             245 
    x28       c5                             996 
    x29       c8                             416  c9                             922 
    x29       c7                             240  c6                             300 
    x29       c0                             674  Obj                            649 
    x29       c4                             797  c3                             426 
    x29       c2                             947  c5                             562 
    x29       c1                              53 
    x30       c0                             509  c6                             961 
    x30       c3                             758  c7                             563 
    x30       c1                             503  Obj                            732 
    x30       c4                             439  c8                             583 
    x30       c9                             399  c5                             975 
    x30       c2                             977 
    x31       c7                             736  c4                             105 
    x31       c1                             273  c2                             702 
    x31       c0                             423  Obj                            752 
    x31       c6                             130  c8                             418 
    x31       c3                             520  c5                             529 
    x31       c9                             151 
    x32       c7                             358  c3                             425 
    x32       c4                             230  c6                             288 
    x32       c2                             576  c1                               8 
    x32       c5                             616  c9                             703 
    x32       c8                             503  c0                             326 
    x32       Obj                            749 
    x33       c2                             113  c0                             361 
    x33       c8                             468  c1                             852 
    x33       c3                              51  c9                             793 
    x33       Obj                            806  c4                             790 
    x33       c7                              31  c6                             722 
    x33       c5                             770 
    x34       c4                               2  c6                             540 
    x34       c9                             442  c0                             664 
    x34       c3                             965  c5                             278 
    x34       c7                             878  c2                             591 
    x34       Obj                            707  c1                             868 
    x34       c8                             194 
    x35       c4                             792  c5                             723 
    x35       c9                             445  c3                              66 
    x35       Obj                            615  c7                             177 
    x35       c8                             935  c2                             856 
    x35       c1                             564  c0                             527 
    x35       c6                             540 
    x36       c6                             951  c2                             570 
    x36       c1                             860  c9                             422 
    x36       c7                             109  c8                             620 
    x36       Obj                            602  c5                               1 
    x36       c4                             325  c3                             360 
    x36       c0                             813 
    x37       c4                             993  c9                              73 
    x37       c8                             721  c6                             662 
    x37       c2                             246  c1                             749 
    x37       Obj                            841  c5                              77 
    x37       c7                             293  c0                             914 
    x37       c3                             789 
    x38       c0                             534  Obj                           1060 
    x38       c2                             840  c4                             718 
    x38       c1                             865  c6                             255 
    x38       c9                             225  c7                             122 
    x38       c8                             846  c5                             348 
    x38       c3                             862 
    x39       c8                             127  c6                             858 
    x39       Obj                            881  c0                             441 
    x39       c5                             771  c1                             143 
    x39       c7                             519  c2                             113 
    x39       c9                             563  c4                             848 
    x39       c3                             876 
    x40       c3                             183  c9                             505 
    x40       c7                             632  c1                             337 
    x40       c4                             272  c2                             875 
    x40       c6                             568  c0                              19 
    x40       c8                             828  c5                             186 
    x40       Obj                            584 
    x41       Obj                            788  c0                             758 
    x41       c8                             390  c7                             750 
    x41       c4                             209  c1                             516 
    x41       c6                             869  c5                              37 
    x41       c2                             167  c9                             880 
    x41       c3                             347 
    x42       c8                             734  c0                             110 
    x42       c9                             723  c5                             296 
    x42       c7                             737  Obj                            530 
    x42       c3                             369  c6                             398 
    x42       c2                             241  c1                             161 
    x42       c4                             194 
    x43       c1                             989  c8                             592 
    x43       c0                             475  c9                             547 
    x43       c6                             743  c3                             440 
    x43       c4                             677  Obj                            688 
    x43       c5                             396  c2                             317 
    x43       c7                             449 
    x44       c7                             500  Obj                            985 
    x44       c8                             611  c1                             951 
    x44       c2                             148  c0                             758 
    x44       c9                              13  c3                             878 
    x44       c6                             516  c4                             527 
    x44       c5                             831 
    x45       c5                             292  Obj                            863 
    x45       c1                             619  c2                             143 
    x45       c0                             934  c7                             200 
    x45       c4                             284  c9                             840 
    x45       c8                              41  c3                             110 
    x45       c6                             866 
    x46       c8                             184  c3                             854 
    x46       c6                             187  c5                             662 
    x46       c7                             845  c1                             717 
    x46       c2                             967  c9                             825 
    x46       c0                             439  c4                             770 
    x46       Obj                            666 
    x47       c3                             865  c1                             705 
    x47       c2                             644  c0                             646 
    x47       c4                               8  c6                             898 
    x47       c9                              84  c8                             687 
    x47       c5                             735  Obj                            986 
    x47       c7                             667 
    x48       c8                             278  Obj                            889 
    x48       c6                             831  c4                             307 
    x48       c2                             515  c9                             942 
    x48       c7                             692  c0                             220 
    x48       c5                             888  c3                             973 
    x48       c1                             716 
    x49       c5                             755  c7                             663 
    x49       c3                             931  c0                             627 
    x49       c1                             861  c8                             858 
    x49       c9                             178  c4                             138 
    x49       c2                             252  Obj                            701 
    x49       c6                             527 
    x50       c3                             790  c8                             284 
    x50       c9                             677  c4                             890 
    x50       c2                              64  c7                              19 
    x50       c5                             916  c6                             278 
    x50       Obj                            614  c0                             969 
    x50       c1                             593 
    x51       c6                             372  c8                             947 
    x51       c2                             768  c7                             160 
    x51       c4                             753  c1                             883 
    x51       c3                             581  c0                             299 
    x51       c9                              13  c5                             243 
    x51       Obj                            893 
    x52       c3                             556  c8                              30 
    x52       c5                             365  c2                             901 
    x52       c7                             312  c6                             250 
    x52       c1                             406  c4                             899 
    x52       c0                             993  c9                              88 
    x52       Obj                            587 
    x53       c5                             411  c2                             441 
    x53       c6                             728  c0                             148 
    x53       c7                             343  c1                             195 
    x53       c4                             970  c3                             535 
    x53       Obj                            709  c9                             742 
    x53       c8                              95 
    x54       c1                             129  c8                             471 
    x54       c3                             786  c6                             706 
    x54       c5                             714  c0                             742 
    x54       c9                             232  Obj                            669 
    x54       c7                             278  c4                             525 
    x54       c2                             883 
    x55       c5                             956  c4                             691 
    x55       c9                             497  Obj                            627 
    x55       c6                             863  c0                              22 
    x55       c7                             134  c1                             480 
    x55       c2                             516  c8                             368 
    x55       c3                             410 
    x56       Obj                            657  c4                             406 
    x56       c3                             542  c5                             933 
    x56       c8                              45  c0                             392 
    x56       c2                             897  c9                             452 
    x56       c1                             687  c7                             754 
    x56       c6                             907 
    x57       c6                             375  c5                             693 
    x57       c9                             418  c1                             912 
    x57       c8                             470  Obj                            662 
    x57       c2                             163  c3                             535 
    x57       c7                             878  c4                             444 
    x57       c0                             979 
    x58       c8                             899  c9                             708 
    x58       c0                             311  c4                             864 
    x58       Obj                            854  c3                             492 
    x58       c2                             782  c1                             921 
    x58       c5                             143  c6                              73 
    x58       c7                             525 
    x59       c5                             363  c3                             426 
    x59       c7                              23  c6                             854 
    x59       c9                             609  c1                             420 
    x59       c4                             722  c2                             916 
    x59       c8                             872  c0                             156 
    x59       Obj                            739 
    x60       c6                             226  c1                             803 
    x60       c5                             847  c9                              76 
    x60       c8                             833  c0                             619 
    x60       c2                             113  c4                             695 
    x60       Obj                            737  c7                             472 
    x60       c3                             873 
    x61       c6                             622  c5                             514 
    x61       c2                             571  Obj                            562 
    x61       c9                             808  c8                             164 
    x61       c7                             199  c4                             414 
    x61       c3                             466  c1                             485 
    x61       c0                             143 
    x62       c2                             179  c6                              69 
    x62       c9                             310  c0                             424 
    x62       c5                             196  c8                             591 
    x62       c7                             724  c4                             569 
    x62       Obj                            877  c1                             111 
    x62       c3                             704 
    x63       Obj                            542  c4                             973 
    x63       c6                              17  c7                             601 
    x63       c2                             145  c8                             521 
    x63       c5                             747  c3                             102 
    x63       c9                             764  c0                             645 
    x63       c1                             839 
    x64       c2                             679  c7                             744 
    x64       c5                             933  c6                             907 
    x64       c9                             549  c8                             443 
    x64       c1                             515  c0                             202 
    x64       c3                             790  Obj                            860 
    x64       c4                             299 
    x65       c4                             640  c8                             872 
    x65       Obj                            793  c2                             637 
    x65       c3                             611  c6                             569 
    x65       c5                             593  c7                             334 
    x65       c1                             436  c9                             774 
    x65       c0                             751 
    x66       Obj                            833  c2                             170 
    x66       c6                              91  c9                             618 
    x66       c3                             176  c1                             593 
    x66       c5                             681  c7                             611 
    x66       c0                             500  c4                             135 
    x66       c8                             749 
    x67       c8                             857  c3                             980 
    x67       c7                             850  c5                              63 
    x67       c2                             121  c9                             911 
    x67       Obj                           1088  c1                             215 
    x67       c4                             971  c0                             570 
    x67       c6                             629 
    x68       c7                             864  Obj                           1123 
    x68       c9                             103  c0                             421 
    x68       c1                             959  c2                             779 
    x68       c6                             481  c4                             132 
    x68       c5                             876  c8                             999 
    x68       c3                             656 
    x69       c7                              63  c3                             184 
    x69       c0                             587  c1                             437 
    x69       c4                             686  c8                             855 
    x69       c5                             540  c9                             756 
    x69       Obj                            496  c6                             175 
    x69       c2                             244 
    x70       c7                             649  c6                             560 
    x70       c3                             714  c5                             649 
    x70       c8                             608  c2                             197 
    x70       c9                             459  Obj                            888 
    x70       c4                             888  c0                              87 
    x70       c1                             998 
    x71       c4                             384  c8                             713 
    x71       c3                             353  c0                             285 
    x71       c1                             395  c7                             574 
    x71       c6                             357  Obj                            567 
    x71       c5                             491  c2                             417 
    x71       c9                             429 
    x72       c0                             234  c3                             455 
    x72       Obj                            662  c1                             597 
    x72       c8                             241  c7                             480 
    x72       c5                             876  c2                             534 
    x72       c6                             657  c4                             291 
    x72       c9                             365 
    x73       c7                             637  c2                             364 
    x73       Obj                            561  c9                             824 
    x73       c1                             905  c3                              36 
    x73       c5                             337  c8                              13 
    x73       c6                             461  c0                              58 
    x73       c4                             856 
    x74       c2                             717  c5                             574 
    x74       c7                             438  c6                             624 
    x74       c8                             970  c9                             137 
    x74       Obj                            561  c0                             189 
    x74       c3                              26  c4                             309 
    x74       c1                             814 
    x75       c6                             867  c7                             227 
    x75       c5                              10  c9                             973 
    x75       c8                             797  c2                             538 
    x75       Obj                            732  c4                             316 
    x75       c1                             755  c3                             948 
    x75       c0                             667 
    x76       Obj                            816  c5                             135 
    x76       c7                             966  c4                             368 
    x76       c2                             301  c6                             746 
    x76       c0                             949  c8                             540 
    x76       c9                             765  c3                              58 
    x76       c1                             932 
    x77       c1                             642  c5                             929 
    x77       c8                             368  c2                             877 
    x77       Obj                            888  c4                             403 
    x77       c3                              45  c9                             985 
    x77       c7                             987  c0                             818 
    x77       c6                              97 
    x78       c3                              15  c4                             206 
    x78       c8                             903  Obj                            633 
    x78       c6                             499  c2                             384 
    x78       c0                             325  c7                             755 
    x78       c9                             129  c1                             425 
    x78       c5                              20 
    x79       c5                             745  c9                             526 
    x79       c4                             983  c1                             536 
    x79       c8                             231  c0                             978 
    x79       c2                             932  c3                             591 
    x79       c6                             205  Obj                            680 
    x79       c7                             251 
    x80       c7                             767  c2                             767 
    x80       c6                             725  Obj                           1148 
    x80       c5                             851  c9                             967 
    x80       c8                             897  c3                             470 
    x80       c0                             843  c4                             297 
    x80       c1                             911 
    x81       c3                             820  c8                             365 
    x81       c6                             238  c4                             421 
    x81       c0                             340  c9                             733 
    x81       Obj                            772  c1                             375 
    x81       c5                             307  c7                             948 
    x81       c2                             186 
    x82       c2                             903  c1                             592 
    x82       c0                             149  c8                             867 
    x82       c9                             434  c6                             166 
    x82       c3                             351  c7                             258 
    x82       c5                             759  c4                             676 
    x82       Obj                            890 
    x83       Obj                            532  c3                             199 
    x83       c8                             286  c5                             909 
    x83       c4                             879  c1                             719 
    x83       c2                             165  c7                             551 
    x83       c6                              23  c0                             411 
    x83       c9                             875 
    x84       c2                             997  c5                             727 
    x84       c4                             460  c7                             782 
    x84       c6                             297  Obj                            609 
    x84       c9                              38  c0                             365 
    x84       c1                             162  c8                             345 
    x84       c3                             600 
    x85       c0                             636  c5                             646 
    x85       c3                             599  c6                             308 
    x85       c7                             316  c8                             839 
    x85       Obj                            658  c9                             555 
    x85       c1                             609  c2                             509 
    x85       c4                             579 
    x86       c7                             197  Obj                            824 
    x86       c0                             164  c4                             139 
    x86       c1                             445  c3                            1000 
    x86       c6                             235  c2                             320 
    x86       c8                             380  c9                             701 
    x86       c5                             588 
    x87       c0                             206  c7                             435 
    x87       c6                             556  Obj                            900 
    x87       c2                              88  c9                             559 
    x87       c5                             706  c1                             709 
    x87       c4                             813  c3                             230 
    x87       c8                             331 
    x88       c2                             420  c1                             838 
    x88       c4                             564  c6                             339 
    x88       c5                             984  Obj                            646 
    x88       c3                             772  c8                             699 
    x88       c9                             240  c0                             749 
    x88       c7                             390 
    x89       c1                             791  c9                             416 
    x89       c2                             985  c7                             242 
    x89       c0                             729  c8                             675 
    x89       Obj                            710  c5                             824 
    x89       c6                             221  c4                             107 
    x89       c3                             321 
    x90       c7                             472  c3                             902 
    x90       Obj                            914  c6                             784 
    x90       c0                             306  c8                             878 
    x90       c1                             539  c2                             825 
    x90       c4                             132  c9                             835 
    x90       c5                             745 
    x91       c5                              78  c6                             596 
    x91       c0                             792  c4                              19 
    x91       c7                             742  c2                             421 
    x91       c9                              39  c8                             909 
    x91       Obj                            678  c1                             218 
    x91       c3                             133 
    x92       c0                             953  c4                             989 
    x92       c1                             589  c9                             317 
    x92       c8                               5  c6                             728 
    x92       c3                             820  c5                             409 
    x92       Obj                            674  c2                             828 
    x92       c7                             823 
    x93       c0                             384  c8                             180 
    x93       Obj                            643  c9                             298 
    x93       c4                             272  c1                             345 
    x93       c5                             482  c3                             532 
    x93       c6                             192  c7                             588 
    x93       c2                             412 
    x94       c0                              80  c9                             748 
    x94       Obj                            459  c4                             116 
    x94       c8                             875  c1                             549 
    x94       c6                             727  c7                             229 
    x94       c3                             406  c5                             323 
    x94       c2                             191 
    x95       Obj                            515  c1                             365 
    x95       c3                             275  c9                             218 
    x95       c4                             694  c0                             741 
    x95       c6                             644  c5                             754 
    x95       c8                             241  c2                             524 
    x95       c7                              46 
    x96       c8                             419  c3                              79 
    x96       c9                               9  c5                              52 
    x96       c4                             824  c0                             394 
    x96       c6                              74  c7                             627 
    x96       c2                             998  Obj                            446 
    x96       c1                             740 
    x97       c1                             598  c3                             364 
    x97       c4                             817  c9                             366 
    x97       c6                             542  c7                             393 
    x97       c0                            1000  Obj                            941 
    x97       c2                             691  c8                             768 
    x97       c5                             943 
    x98       c6                             771  Obj                            814 
    x98       c2                              50  c9                             755 
    x98       c5                              42  c0                              70 
    x98       c7                             723  c4                             238 
    x98       c8                             983  c1                              32 
    x98       c3                              20 
    x99       c3                             188  c4                             251 
    x99       c5                              14  c2                             609 
    x99       c8                             179  Obj                            575 
    x99       c0                             869  c7                             789 
    x99       c6                             561  c1                             387 
    x99       c9                             745 
    INTEND    'MARKER'                            'INTEND'                           
RHS
    RHS       c0                           25125  c1                           28058 
    RHS       c2                           25836  c3                           25946 
    RHS       c4                           24539  c5                           28051 
    RHS       c6                           24767  c7                           26048 
    RHS       c8                           26101  c9                           24552 
BOUNDS
 BV Bound     x0                                 
 BV Bound     x1                                 
 BV Bound     x2                                 
 BV Bound     x3                                 
 BV Bound     x4                                 
 BV Bound     x5                                 
 BV Bound     x6                                 
 BV Bound     x7                                 
 BV Bound     x8                                 
 BV Bound     x9                                 
 BV Bound     x10                                
 BV Bound     x11                                
 BV Bound     x12                                
 BV Bound     x13                                
 BV Bound     x14                                
 BV Bound     x15                                
 BV Bound     x16                                
 BV Bound     x17                                
 BV Bound     x18                                
 BV Bound     x19                                
 BV Bound     x20                                
 BV Bound     x21                                
 BV Bound     x22                                
 BV Bound     x23                                
 BV Bound     x24                                
 BV Bound     x25                                
 BV Bound     x26                                
 BV Bound     x27                                
 BV Bound     x28                                
 BV Bound     x29                                
 BV Bound     x30                                
 BV Bound     x31                                
 BV Bound     x32                                
 BV Bound     x33                                
 BV Bound     x34                                
 BV Bound     x35                                
 BV Bound     x36                                
 BV Bound     x37                                
 BV Bound     x38                                
 BV Bound     x39                                
 BV Bound     x40                                
 BV Bound     x41                                
 BV Bound     x42                                
 BV Bound     x43                                
 BV Bound     x44                                
 BV Bound     x45                                
 BV Bound     x46                                
 BV Bound     x47                                
 BV Bound     x48                                
 BV Bound     x49                                
 BV Bound     x50                                
 BV Bound     x51                                
 BV Bound     x52                                
 BV Bound     x53                                
 BV Bound     x54                                
 BV Bound     x55                                
 BV Bound     x56                                
 BV Bound     x57                                
 BV Bound     x58                                
 BV Bound     x59                                
 BV Bound     x60                                
 BV Bound     x61                                
 BV Bound     x62                                
 BV Bound     x63                                
 BV Bound     x64                                
 BV Bound     x65                                
 BV Bound     x66                                
 BV Bound     x67                                
 BV Bound     x68                                
 BV Bound     x69                                
 BV Bound     x70                                
 BV Bound     x71                                
 BV Bound     x72                                
 BV Bound     x73                                
 BV Bound     x74                                
 BV Bound     x75                                
 BV Bound     x76                                
 BV Bound     x77                                
 BV Bound     x78                                
 BV Bound     x79                                
 BV Bound     x80                                
 BV Bound     x81                                
 BV Bound     x82                                
 BV Bound     x83                                
 BV Bound     x84                                
 BV Bound     x85                                
 BV Bound     x86                                
 BV Bound     x87                                
 BV Bound     x88                                
 BV Bound     x89                                
 BV Bound     x90                                
 BV Bound     x91                                
 BV Bound     x92                                
 BV Bound     x93                                
 BV Bound     x94                                
 BV Bound     x95                                
 BV Bound     x96                                
 BV Bound     x97                                
 BV Bound     x98                                
 BV Bound     x99                                
ENDATA