* SCIP STATISTICS
*   Problem name     : mknap_17
*   Variables        : 100 (100 binary, 0 integer, 0 implicit integer, 0 continuous)
*   Constraints      : 10
NAME          mknap_17
OBJSENSE
  MAX
ROWS
 N  Obj 
 L  c0 
 L  c1 
 L  c2 
 L  c3 
 L  c4 
 L  c5 
 L  c6 
 L  c7 
 L  c8 
 L  c9 
COLUMNS
    INTSTART  'MARKER'                            'INTORG'                           
    x0        Obj                            673  c5                             473 
    x0        c4                             845  c6                             762 
    x0        c3                             366  c7                             430 
    x0        c2                             211  c8                             339 
    x0        c1                             936  c9                              93 
    x0        c0                             292 
    x1        Obj                            721  c5                             783 
    x1        c4                             840  c6                             206 
    x1        c3                             869  c7                             105 
    x1        c2                             340  c8                             667 
    x1        c1                             647  c9                             165 
    x1        c0                             316 
    x2        c9                             238  c5                             341 
    x2        Obj                            533  c3                             812 
    x2        c1                              61  c4                              58 
    x2        c0                              38  c8                             877 
    x2        c7                             147  c2                             199 
    x2        c6                             540 
    x3        c9                             363  c8                             847 
    x3        c2                             121  c1                             240 
    x3        c6                              77  c7                             172 
    x3        c3                             520  Obj                            646 
    x3        c4                             872  c0                             624 
    x3        c5                             519 
    x4        c4                             706  c3                             413 
    x4        c0                             886  c6                             805 
    x4        Obj                            667  c1                             690 
    x4        c7                             841  c2                               2 
    x4        c5                             465  c8                             656 
    x4        c9                             996 
    x5        c8                              10  c3                             181 
    x5        c1                             675  c5                             563 
    x5        c6                             346  c7                             793 
    x5        Obj                            561  c4                             269 
    x5        c0                             509  c9                             309 
    x5        c2                             506 
    x6        Obj                            975  c3                             608 
    x6        c8                             932  c4                             459 
    x6        c0                             547  c7                             913 
    x6        c5                             627  c9                             696 
    x6        c1                             190  c2                             265 
    x6        c6                             319 
    x7        c9                             133  c5                             757 
    x7        c1                             850  c7                             271 
    x7        c2                             607  c4                             531 
    x7        Obj                            616  c8                             732 
    x7        c0                              30  c3                             165 
    x7        c6                             948 
    x8        c5                             955  c7                             505 
    x8        c2                             211  c4                             125 
    x8        c1                             905  c6                             402 
    x8        c0                              59  c8                             785 
    x8        Obj                            877  c3                             886 
    x8        c9                             549 
    x9        c9                             734  c4                             735 
    x9        c8                             929  c6                             260 
    x9        c0                             516  Obj                            834 
    x9        c1                             545  c3                             738 
    x9        c7                             762  c5                             320 
    x9        c2                             531 
    x10       c9                             769  c3                             611 
    x10       Obj                           1016  c4                             446 
    x10       c8                             830  c6                             920 
    x10       c0                             853  c5                             771 
    x10       c7                              14  c2                             171 
    x10       c1                             296 
    x11       c1                             784  c8                             928 
    x11       c0                             527  c9                             501 
    x11       c2                             221  c7                              82 
    x11       c3                             385  c6                             334 
    x11       c4                             550  c5                             363 
    x11       Obj                            528 
    x12       Obj                            799  c5                             637 
    x12       c3                             909  c1                             768 
    x12       c7                             511  c9                             940 
    x12       c8                             772  c0                             868 
    x12       c6                             904  c2                             538 
    x12       c4                             257 
    x13       c5                              44  c8                             788 
    x13       c3                              18  c7                             552 
    x13       c9                             631  c0                             417 
    x13       c1                             618  c6                             958 
    x13       c2                             672  c4                             668 
    x13       Obj                            885 
    x14       Obj                            785  c4                             830 
    x14       c5                             225  c6                             534 
    x14       c7                              19  c1                             861 
    x14       c2                             588  c0                             435 
    x14       c3                              46  c9                             439 
    x14       c8                             969 
    x15       c9                             943  c1                             576 
    x15       c2                              72  c7                             222 
    x15       c6                             901  c8                             147 
    x15       Obj                            753  c3                             583 
    x15       c0                             277  c5                             259 
    x15       c4                             681 
    x16       c3                             855  Obj                            656 
    x16       c5                             652  c9                             903 
    x16       c1                              33  c4                             923 
    x16       c7                             455  c6                             805 
    x16       c0                             764  c8                             907 
    x16       c2                             210 
    x17       c7                              19  c3                             430 
    x17       c9                             270  Obj                            600 
    x17       c4                             137  c2                              28 
    x17       c1                             485  c5                             839 
    x17       c6                             122  c0                             418 
    x17       c8                             359 
    x18       c8                             363  c1                             759 
    x18       c5                             347  c6                             641 
    x18       c0                             124  c3                             239 
    x18       c9                             764  Obj                            633 
    x18       c7                             565  c2                             809 
    x18       c4                             420 
    x19       Obj                            696  c5                             886 
    x19       c8                              15  c0                             356 
    x19       c9                             823  c2                             504 
    x19       c6                             202  c3                             751 
    x19       c4                             791  c7                             172 
    x19       c1                              24 
    x20       c1                              36  c7                             928 
    x20       c3                             252  c4                             391 
    x20       Obj                            629  c9                             428 
    x20       c8                             977  c0                             809 
    x20       c5                             221  c2                              36 
    x20       c6                             933 
    x21       c9                             696  c1                             860 
    x21       c2                             510  c4                             275 
    x21       Obj                            575  c5                             134 
    x21       c0                             763  c6                             309 
    x21       c3                             315  c8                             735 
    x21       c7                             240 
    x22       c8                             371  Obj                            764 
    x22       c0                             674  c1                             545 
    x22       c9                             753  c2                             392 
    x22       c5                             103  c7                             990 
    x22       c4                             725  c3                             593 
    x22       c6                             588 
    x23       c8                              23  c6                             209 
    x23       c0                             722  Obj                            891 
    x23       c9                             692  c1                             626 
    x23       c2                             556  c5                             481 
    x23       c7                             338  c4                             172 
    x23       c3                             873 
    x24       c3                              62  c0                             155 
    x24       c6                             844  c9                             114 
    x24       Obj                            896  c1                             625 
    x24       c7                             188  c2                             608 
    x24       c4                             301  c5                             847 
    x24       c8                             436 
    x25       c9                             291  c0                             932 
    x25       c3                             843  c1                              52 
    x25       c7                             607  c8                             878 
    x25       Obj                            540  c6                             314 
    x25       c5                             473  c4                             638 
    x25       c2                             138 
    x26       Obj                            666  c5                             646 
    x26       c9                              33  c2                              96 
    x26       c0                             397  c3                             821 
    x26       c7                              19  c8                             784 
    x26       c4                             310  c1                              25 
    x26       c6                             582 
    x27       c5                              97  c0                              84 
    x27       c3                             176  Obj                            652 
    x27       c7                             497  c6                             831 
    x27       c1                             361  c8                             888 
    x27       c9                             760  c4                             198 
    x27       c2                             737 
    x28       c1                             198  c9                             580 
    x28       Obj                           1091  c7                            1000 
    x28       c6                              58  c2                             988 
    x28       c3                             741  c8                             766 
    x28       c0                             982  c4                             445 
    x28       c5                             255 
    x29       c8                             368  c9                             188 
    x29       c7                             531  c6                             688 
    x29       c0                             832  Obj                            609 
    x29       c4                             726  c3                             232 
    x29       c2                             215  c5                             245 
    x29       c1                             718 
    x30       c0                             520  c6                             229 
    x30       c3                             196  c7                             955 
    x30       c1                             314  Obj                            827 
    x30       c4                             227  c8                             114 
    x30       c9                             422  c5                             669 
    x30       c2                             201 
    x31       c7                             133  c4                             421 
    x31       c1                             744  c2                             753 
    x31       c0                             405  Obj                            779 
    x31       c6                             597  c8                             577 
    x31       c3                             918  c5                               7 
    x31       c9                             429 
    x32       c7                             955  c3                             511 
    x32       c4                             912  c6                              49 
    x32       c2                             463  c1                             719 
    x32       c5                             873  c9                             220 
    x32       c8                             435  c0                             847 
    x32       Obj                            916 
    x33       c2                             766  c0                             486 
    x33       c8                             969  c1                              71 
    x33       c3                             686  c9                             487 
    x33       Obj                            687  c4                             641 
    x33       c7                             379  c6                             902 
    x33       c5                             408 
    x34       c4                             578  c6                             457 
    x34       c9                             508  c0                             590 
    x34       c3                             699  c5                             631 
    x34       c7                             674  c2                             891 
    x34       Obj                            919  c1                             243 
    x34       c8                             442 
    x35       c4                             969  c5                             114 
    x35       c9                             271  c3                             740 
    x35       Obj                            881  c7                             242 
    x35       c8                             898  c2                             731 
    x35       c1                             503  c0                              78 
    x35       c6                             354 
    x36       c6                             119  c2                             668 
    x36       c1                              73  c9                             550 
    x36       c7                             950  c8                             507 
    x36       Obj                            994  c5                             966 
    x36       c4                             762  c3                             256 
    x36       c0                             952 
    x37       c4                             369  c9                             515 
    x37       c8                             571  c6                             316 
    x37       c2                             903  c1                             406 
    x37       Obj                            735  c5                             561 
    x37       c7                             347  c0                             650 
    x37       c3                             966 
    x38       c0                              42  Obj                            555 
    x38       c2                             615  c4                              43 
    x38       c1                             625  c6                             602 
    x38       c9                             742  c7                              56 
    x38       c8                             698  c5                             820 
    x38       c3                             597 
    x39       c8                             878  c6                             401 
    x39       Obj                            610  c0                             235 
    x39       c5                             303  c1                             621 
    x39       c7                             445  c2                              54 
    x39       c9                             940  c4                             120 
    x39       c3                             182 
    x40       c3                             692  c9                             711 
    x40       c7                             519  c1                             612 
    x40       c4                             824  c2                             951 
    x40       c6                             643  c0                              99 
    x40       c8                             909  c5                             771 
    x40       Obj                            677 
    x41       Obj                            806  c0                             106 
    x41       c8                             216  c7                             746 
    x41       c4                             554  c1                             331 
    x41       c6                             282  c5                             339 
    x41       c2                             699  c9                             521 
    x41       c3                             105 
    x42       c8                             948  c0                             824 
    x42       c9                             220  c5                             128 
    x42       c7                             198  Obj                            663 
    x42       c3                             392  c6                             497 
    x42       c2                             279  c1                             101 
    x42       c4                             996 
    x43       c1                             644  c8                             807 
    x43       c0                             699  c9                             859 
    x43       c6                             583  c3                             128 
    x43       c4                             861  Obj                            694 
    x43       c5                             376  c2                             469 
    x43       c7                             306 
    x44       c7                             166  Obj                            547 
    x44       c8                             120  c1                             348 
    x44       c2                             401  c0                             809 
    x44       c9                             434  c3                             615 
    x44       c6                             730  c4                              30 
    x44       c5                             259 
    x45       c5                             821  Obj                            967 
    x45       c1                             106  c2                             554 
    x45       c0                             856  c7                             945 
    x45       c4                             240  c9                             311 
    x45       c8                             611  c3                             251 
    x45       c6                               4 
    x46       c8                             955  c3                             503 
    x46       c6                             534  c5                              28 
    x46       c7                              49  c1                             438 
    x46       c2                             950  c9                             114 
    x46       c0                             703  c4                             438 
    x46       Obj                            810 
    x47       c3                             963  c1                             247 
    x47       c2                             393  c0                             461 
    x47       c4                             767  c6                             307 
    x47       c9                             111  c8                             557 
    x47       c5                             112  Obj                            515 
    x47       c7                             271 
    x48       c8                             337  Obj                            896 
    x48       c6                              79  c4                             998 
    x48       c2                             323  c9                             353 
    x48       c7                             148  c0                             256 
    x48       c5                             681  c3                             785 
    x48       c1                             230 
    x49       c5                             275  c7                             616 
    x49       c3                             515  c0                             770 
    x49       c1                             818  c8                             743 
    x49       c9                             873  c4                             262 
    x49       c2                             570  Obj                            730 
    x49       c6                             484 
    x50       c3                             522  c8                             588 
    x50       c9                             175  c4                             641 
    x50       c2                             591  c7                             678 
    x50       c5                             884  c6                             359 
    x50       Obj                            573  c0                             156 
    x50       c1                             709 
    x51       c6                             396  c8                             607 
    x51       c2                             977  c7                             171 
    x51       c4                             727  c1                             612 
    x51       c3                             381  c0                             291 
    x51       c9                             275  c5                             306 
    x51       Obj                            618 
    x52       c3                             979  c8                             522 
    x52       c5                             792  c2                             532 
    x52       c7                              30  c6                             340 
    x52       c1                             851  c4                             991 
    x52       c0                             366  c9                              11 
    x52       Obj                            567 
    x53       c5                             171  c2                              60 
    x53       c6                             870  c0                             634 
    x53       c7                             576  c1                             217 
    x53       c4                             886  c3                             220 
    x53       Obj                            928  c9                             491 
    x53       c8                             469 
    x54       c1                             770  c8                             395 
    x54       c3                             592  c6                             668 
    x54       c5                             917  c0                             701 
    x54       c9                             658  Obj                            996 
    x54       c7                             564  c4                             303 
    x54       c2                             326 
    x55       c5                             141  c4                               7 
    x55       c9                             730  Obj                            822 
    x55       c6                             364  c0                             760 
    x55       c7                             281  c1                              25 
    x55       c2                             235  c8                             661 
    x55       c3                             948 
    x56       Obj                            607  c4                             675 
    x56       c3                             578  c5                              79 
    x56       c8                              89  c0                              24 
    x56       c2                             547  c9                             370 
    x56       c1                             302  c7                             518 
    x56       c6                             947 
    x57       c6                             458  c5                             878 
    x57       c9                             990  c1                             402 
    x57       c8                             558  Obj                            669 
    x57       c2                             326  c3                             565 
    x57       c7                             336  c4                             356 
    x57       c0                             910 
    x58       c8                             348  c9                             204 
    x58       c0                             818  c4                             795 
    x58       Obj                            471  c3                             496 
    x58       c2                             169  c1                             370 
    x58       c5                             317  c6                             707 
    x58       c7                             192 
    x59       c5                             704  c3                              16 
    x59       c7                             361  c6                             469 
    x59       c9                             485  c1                              87 
    x59       c4                             594  c2                             424 
    x59       c8                             555  c0                             656 
    x59       Obj                            444 
    x60       c6                             834  c1                             965 
    x60       c5                             278  c9                             833 
    x60       c8                             428  c0                             969 
    x60       c2                             203  c4                             590 
    x60       Obj                            835  c7                             507 
    x60       c3                             318 
    x61       c6                             195  c5                             820 
    x61       c2                             976  Obj                            987 
    x61       c9                             248  c8                             732 
    x61       c7                             912  c4                             545 
    x61       c3                             944  c1                             766 
    x61       c0                             543 
    x62       c2                              45  c6                             638 
    x62       c9                             614  c0                             820 
    x62       c5                              15  c8                              48 
    x62       c7                             211  c4                             433 
    x62       Obj                            544  c1                             853 
    x62       c3                              98 
    x63       Obj                            720  c4                              39 
    x63       c6                             223  c7                             533 
    x63       c2                             992  c8                             398 
    x63       c5                              28  c3                             900 
    x63       c9                             260  c0                             444 
    x63       c1                             858 
    x64       c2                             466  c7                             814 
    x64       c5                             737  c6                             555 
    x64       c9                              80  c8                              77 
    x64       c1                             466  c0                             187 
    x64       c3                             633  Obj                            827 
    x64       c4                             136 
    x65       c4                             648  c8                             337 
    x65       Obj                            852  c2                             391 
    x65       c3                             941  c6                             338 
    x65       c5                             470  c7                             208 
    x65       c1                             950  c9                             866 
    x65       c0                             274 
    x66       Obj                            939  c2                             656 
    x66       c6                             678  c9                             649 
    x66       c3                             168  c1                             648 
    x66       c5                             917  c7                             963 
    x66       c0                             458  c4                             146 
    x66       c8                             300 
    x67       c8                             180  c3                             659 
    x67       c7                             279  c5                             838 
    x67       c2                             562  c9                             113 
    x67       Obj                            797  c1                              28 
    x67       c4                             710  c0                             386 
    x67       c6                             471 
    x68       c7                             620  Obj                            569 
    x68       c9                             471  c0                             734 
    x68       c1                              86  c2                             808 
    x68       c6                             175  c4                              97 
    x68       c5                             207  c8                             202 
    x68       c3                             320 
    x69       c7                             142  c3                             172 
    x69       c0                             489  c1                             401 
    x69       c4                             914  c8                             500 
    x69       c5                             706  c9                             832 
    x69       Obj                            456  c6                             330 
    x69       c2                              75 
    x70       c7                             260  c6                             621 
    x70       c3                              91  c5                             605 
    x70       c8                             928  c2                              91 
    x70       c9                             391  Obj                            819 
    x70       c4                             862  c0                             648 
    x70       c1                             799 
    x71       c4                               7  c8                             797 
    x71       c3                             625  c0                             199 
    x71       c1                             445  c7                              35 
    x71       c6                             271  Obj                            464 
    x71       c5                             770  c2                             897 
    x71       c9                             375 
    x72       c0                              67  c3                             555 
    x72       Obj                            716  c1                             250 
    x72       c8                             137  c7                             986 
    x72       c5                             536  c2                              87 
    x72       c6                             110  c4                             895 
    x72       c9                             348 
    x73       c7                               1  c2                             481 
    x73       Obj                            949  c9                             834 
    x73       c1                             819  c3                             285 
    x73       c5                             481  c8                             343 
    x73       c6                             465  c0                             767 
    x73       c4                             673 
    x74       c2                             571  c5                             575 
    x74       c7                             205  c6                             591 
    x74       c8                             109  c9                             485 
    x74       Obj                            995  c0                             654 
    x74       c3                             952  c4                             184 
    x74       c1                             880 
    x75       c6                             680  c7                              80 
    x75       c5                             494  c9                             677 
    x75       c8                             196  c2                             480 
    x75       Obj                            697  c4                             420 
    x75       c1                             459  c3                             505 
    x75       c0                               4 
    x76       Obj                            632  c5                             650 
    x76       c7                              76  c4                             689 
    x76       c2                             895  c6                             879 
    x76       c0                             472  c8                             558 
    x76       c9                             108  c3                             972 
    x76       c1                             149 
    x77       c1                             912  c5                             656 
    x77       c8                             553  c2                             440 
    x77       Obj                            992  c4                             143 
    x77       c3                             679  c9                             213 
    x77       c7                             649  c0                             517 
    x77       c6                             819 
    x78       c3                             799  c4                              23 
    x78       c8                             379  Obj                            445 
    x78       c6                             326  c2                              11 
    x78       c0                             865  c7                             250 
    x78       c9                             453  c1                             568 
    x78       c5                             491 
    x79       c5                             331  c9                              10 
    x79       c4                             509  c1                             800 
    x79       c8                             803  c0                             865 
    x79       c2                              84  c3                             776 
    x79       c6                             207  Obj                            878 
    x79       c7                             957 
    x80       c7                              43  c2                             246 
    x80       c6                             103  Obj                            664 
    x80       c5                             403  c9                             867 
    x80       c8                             396  c3                              34 
    x80       c0                             138  c4                              33 
    x80       c1                             900 
    x81       c3                             730  c8                             949 
    x81       c6                             374  c4                             316 
    x81       c0                             815  c9                             657 
    x81       Obj                            727  c1                             939 
    x81       c5                             569  c7                              51 
    x81       c2                             180 
    x82       c2                             635  c1                             279 
    x82       c0                             564  c8                              85 
    x82       c9                             581  c6                             528 
    x82       c3                             743  c7                             621 
    x82       c5                             253  c4                             354 
    x82       Obj                            566 
    x83       Obj                            476  c3                             387 
    x83       c8                             329  c5                             333 
    x83       c4                              29  c1                             473 
    x83       c2                             780  c7                             317 
    x83       c6                             907  c0                              12 
    x83       c9                             448 
    x84       c2                             274  c5                             259 
    x84       c4                             148  c7                             554 
    x84       c6                              92  Obj                            743 
    x84       c9                              45  c0                             963 
    x84       c1                             981  c8                              60 
    x84       c3                             739 
    x85       c0                             742  c5                             158 
    x85       c3                             670  c6                             814 
    x85       c7                              77  c8                             599 
    x85       Obj                            764  c9                             736 
    x85       c1                             952  c2                             364 
    x85       c4                             266 
    x86       c7                             707  Obj                            863 
    x86       c0                             108  c4                             825 
    x86       c1                             138  c3                             371 
    x86       c6                             577  c2                             230 
    x86       c8                             342  c9                             873 
    x86       c5                             686 
    x87       c0                             911  c7                              74 
    x87       c6                             842  Obj                            652 
    x87       c2                             177  c9                             545 
    x87       c5                             885  c1                             504 
    x87       c4                             191  c3                             478 
    x87       c8                             205 
    x88       c2                             935  c1                             186 
    x88       c4                             272  c6                             911 
    x88       c5                             297  Obj                            817 
    x88       c3                             546  c8                             321 
    x88       c9                             584  c0                             129 
    x88       c7                              31 
    x89       c1                              27  c9                             892 
    x89       c2                             884  c7                              37 
    x89       c0                             555  c8                             970 
    x89       Obj                           1003  c5                             571 
    x89       c6                             550  c4                             425 
    x89       c3                             864 
    x90       c7                              56  c3                             299 
    x90       Obj                           1141  c6                             920 
    x90       c0                             950  c8                             808 
    x90       c1                             788  c2                             695 
    x90       c4                             964  c9                             401 
    x90       c5                             889 
    x91       c5                             746  c6                             926 
    x91       c0                             845  c4                             323 
    x91       c7                             251  c2                             901 
    x91       c9                             426  c8                             263 
    x91       Obj                           1023  c1                             134 
    x91       c3                             655 
    x92       c0                             618  c4                             626 
    x92       c1                              14  c9                             879 
    x92       c8                             632  c6                             251 
    x92       c3                              22  c5                             482 
    x92       Obj                            899  c2                             799 
    x92       c7                             370 
    x93       c0                             872  c8                             714 
    x93       Obj                            690  c9                             829 
    x93       c4                             913  c1                             751 
    x93       c5                             640  c3                             151 
    x93       c6                             379  c7                             746 
    x93       c2                             713 
    x94       c0                             370  c9                             722 
    x94       Obj                            744  c4                             916 
    x94       c8                             584  c1                              44 
    x94       c6                             579  c7                             938 
    x94       c3                              98  c5                             587 
    x94       c2                             505 
    x95       Obj                            780  c1                             954 
    x95       c3                              14  c9                             890 
    x95       c4                             374  c0                             258 
    x95       c6                             931  c5                             156 
    x95       c8                             771  c2                             877 
    x95       c7                             790 
    x96       c8                             432  c3                             278 
    x96       c9                             623  c5                             193 
    x96       c4                             740  c0                              56 
    x96       c6                              72  c7                             527 
    x96       c2                             148  Obj                            820 
    x96       c1                             713 
    x97       c1                             334  c3                             370 
    x97       c4                             868  c9                             325 
    x97       c6                             921  c7                             663 
    x97       c0                             775  Obj                            964 
    x97       c2                             864  c8                             458 
    x97       c5                             969 
    x98       c6                             329  Obj                            392 
    x98       c2                              89  c9                              70 
    x98       c5                             879  c0                             332 
    x98       c7                             270  c4                             603 
    x98       c8                             747  c1                             229 
    x98       c3                             363 
    x99       c3                             278  c4                             397 
    x99       c5                             333  c2                             878 
    x99       c8                             965  Obj                            608 
    x99       c0                             582  c7                             140 
    x99       c6                              45  c1                             448 
    x99       c9                             768 
    INTEND    'MARKER'                            'INTEND'                           
RHS
    RHS       c0                           25934  c1                           24709 
    RHS       c2                           23644  c3                           25386 
    RHS       c4                           25279  c5                           24776 
    RHS       c6                           25273  c7                           20823 
    RHS       c8                           27399  c9                           25398 
BOUNDS
 BV Bound     x0                                 
 BV Bound     x1                                 
 BV Bound     x2                                 
 BV Bound     x3                                 
 BV Bound     x4                                 
 BV Bound     x5                                 
 BV Bound     x6                                 
 BV Bound     x7                                 
 BV Bound     x8                                 
 BV Bound     x9                                 
 BV Bound     x10                                
 BV Bound     x11                                
 BV Bound     x12                                
 BV Bound     x13                                
 BV Bound     x14                                
 BV Bound     x15                                
 BV Bound     x16                                
 BV Bound     x17                                
 BV Bound     x18                                
 BV Bound     x19                                
 BV Bound     x20                                
 BV Bound     x21                                
 BV Bound     x22                                
 BV Bound     x23                                
 BV Bound     x24                                
 BV Bound     x25                                
 BV Bound     x26                                
 BV Bound     x27                                
 BV Bound     x28                                
 BV Bound     x29                                
 BV Bound     x30                                
 BV Bound     x31                                
 BV Bound     x32                                
 BV Bound     x33                                
 BV Bound     x34                                
 BV Bound     x35                                
 BV Bound     x36                                
 BV Bound     x37                                
 BV Bound     x38                                
 BV Bound     x39                                
 BV Bound     x40                                
 BV Bound     x41                                
 BV Bound     x42                                
 BV Bound     x43                                
 BV Bound     x44                                
 BV Bound     x45                                
 BV Bound     x46                                
 BV Bound     x47                                
 BV Bound     x48                                
 BV Bound     x49                                
 BV Bound     x50                                
 BV Bound     x51                                
 BV Bound     x52                                
 BV Bound     x53                                
 BV Bound     x54                                
 BV Bound     x55                                
 BV Bound     x56                                
 BV Bound     x57                                
 BV Bound     x58                                
 BV Bound     x59                                
 BV Bound     x60                                
 BV Bound     x61                                
 BV Bound     x62                                
 BV Bound     x63                                
 BV Bound     x64                                
 BV Bound     x65                                
 BV Bound     x66                                
 BV Bound     x67                                
 BV Bound     x68                                
 BV Bound     x69                                
 BV Bound     x70                                
 BV Bound     x71                                
 BV Bound     x72                                
 BV Bound     x73                                
 BV Bound     x74                                
 BV Bound     x75                                
 BV Bound     x76                                
 BV Bound     x77                                
 BV Bound     x78                                
 BV Bound     x79                                
 BV Bound     x80                                
 BV Bound     x81                                
 BV Bound     x82                                
 BV Bound     x83                                
 BV Bound     x84                                
 BV Bound     x85                                
 BV Bound     x86                                
 BV Bound     x87                                
 BV Bound     x88                                
 BV Bound     x89                                
 BV Bound     x90                                
 BV Bound     x91                                
 BV Bound     x92                                
 BV Bound     x93                                
 BV Bound     x94                                
 BV Bound     x95                                
 BV Bound     x96                                
 BV Bound     x97                                
 BV Bound     x98                                
 BV Bound     x99                                
ENDATA