* SCIP STATISTICS
*   Problem name     : mknap_23
*   Variables        : 100 (100 binary, 0 integer, 0 implicit integer, 0 continuous)
*   Constraints      : 10
NAME          mknap_23
OBJSENSE
  MAX
ROWS
 N  Obj 
 L  c0 
 L  c1 
 L  c2 
 L  c3 
 L  c4 
 L  c5 
 L  c6 
 L  c7 
 L  c8 
 L  c9 
COLUMNS
    INTSTART  'MARKER'                            'INTORG'                           
    x0        Obj                            764  c5                             560 
    x0        c4                             698  c6                             130 
    x0        c3                             219  c7                             379 
    x0        c2                             627  c8                             376 
    x0        c1                             963  c9                             233 
    x0        c0                              66 
    x1        Obj                            816  c5                              72 
    x1        c4                             637  c6                             144 
    x1        c3                             548  c7                             161 
    x1        c2                             731  c8                             148 
    x1        c1                              22  c9                             868 
    x1        c0                             681 
    x2        c9                             407  c5                             254 
    x2        Obj                            812  c3                             488 
    x2        c1                             436  c4                             973 
    x2        c0                             626  c8                             715 
    x2        c7                             372  c2                             787 
    x2        c6                             980 
    x3        c9                             405  c8                              42 
    x3        c2                               5  c1                             657 
    x3        c6                             908  c7                             368 
    x3        c3                             848  Obj                            712 
    x3        c4                             968  c0                             661 
    x3        c5                             417 
    x4        c4                             582  c3                             513 
    x4        c0                             350  c6                              78 
    x4        Obj                            518  c1                             810 
    x4        c7                             164  c2                             100 
    x4        c5                             687  c8                             752 
    x4        c9                             626 
    x5        c8                             688  c3                             443 
    x5        c1                             802  c5                             360 
    x5        c6                              15  c7                             727 
    x5        Obj                            741  c4                              58 
    x5        c0                             676  c9                             627 
    x5        c2                             244 
    x6        Obj                            806  c3                             376 
    x6        c8                             549  c4                             853 
    x6        c0                             940  c7                             980 
    x6        c5                             884  c9                              26 
    x6        c1                             531  c2                             650 
    x6        c6                             653 
    x7        c9                             415  c5                              26 
    x7        c1                             224  c7                             510 
    x7        c2                             674  c4                             630 
    x7        Obj                            798  c8                             641 
    x7        c0                             181  c3                             662 
    x7        c6                             662 
    x8        c5                             175  c7                             915 
    x8        c2                             564  c4                             808 
    x8        c1                             982  c6                             281 
    x8        c0                             744  c8                             563 
    x8        Obj                           1043  c3                             964 
    x8        c9                             570 
    x9        c9                              16  c4                             877 
    x9        c8                             866  c6                             292 
    x9        c0                             706  Obj                            886 
    x9        c1                             379  c3                             721 
    x9        c7                             973  c5                             136 
    x9        c2                             841 
    x10       c9                             474  c3                             804 
    x10       Obj                            928  c4                              94 
    x10       c8                             854  c6                             365 
    x10       c0                             338  c5                             307 
    x10       c7                             165  c2                             935 
    x10       c1                             542 
    x11       c1                             141  c8                             929 
    x11       c0                             798  c9                             437 
    x11       c2                             164  c7                             265 
    x11       c3                             850  c6                             182 
    x11       c4                             278  c5                             177 
    x11       Obj                            522 
    x12       Obj                           1243  c5                             174 
    x12       c3                             986  c1                             828 
    x12       c7                             770  c9                             916 
    x12       c8                             912  c0                             738 
    x12       c6                             418  c2                             889 
    x12       c4                             973 
    x13       c5                              45  c8                             147 
    x13       c3                             478  c7                             131 
    x13       c9                             816  c0                             778 
    x13       c1                             165  c6                             844 
    x13       c2                             207  c4                             406 
    x13       Obj                            671 
    x14       Obj                            813  c4                             655 
    x14       c5                              94  c6                             265 
    x14       c7                             775  c1                              42 
    x14       c2                              11  c0                             226 
    x14       c3                             746  c9                              27 
    x14       c8                             858 
    x15       c9                             201  c1                             107 
    x15       c2                             222  c7                             140 
    x15       c6                             996  c8                             833 
    x15       Obj                            701  c3                             929 
    x15       c0                             817  c5                             226 
    x15       c4                             674 
    x16       c3                             617  Obj                           1041 
    x16       c5                             404  c9                             721 
    x16       c1                             846  c4                              52 
    x16       c7                             656  c6                             288 
    x16       c0                             969  c8                             585 
    x16       c2                             336 
    x17       c7                             773  c3                             336 
    x17       c9                             291  Obj                            645 
    x17       c4                              40  c2                             733 
    x17       c1                             899  c5                             358 
    x17       c6                             237  c0                              72 
    x17       c8                             458 
    x18       c8                             732  c1                              24 
    x18       c5                             272  c6                             103 
    x18       c0                             121  c3                             895 
    x18       c9                             563  Obj                            782 
    x18       c7                             467  c2                               9 
    x18       c4                             351 
    x19       Obj                            488  c5                             531 
    x19       c8                             578  c0                             482 
    x19       c9                             151  c2                             834 
    x19       c6                             826  c3                             424 
    x19       c4                             171  c7                             253 
    x19       c1                             330 
    x20       c1                             960  c7                             300 
    x20       c3                             811  c4                             714 
    x20       Obj                            629  c9                             522 
    x20       c8                             886  c0                             395 
    x20       c5                             845  c2                              18 
    x20       c6                             217 
    x21       c9                             210  c1                             456 
    x21       c2                             909  c4                             201 
    x21       Obj                            937  c5                             783 
    x21       c0                              44  c6                             167 
    x21       c3                             350  c8                             453 
    x21       c7                             970 
    x22       c8                             385  Obj                            486 
    x22       c0                             277  c1                               9 
    x22       c9                             634  c2                             341 
    x22       c5                             949  c7                             570 
    x22       c4                             491  c3                             353 
    x22       c6                             406 
    x23       c8                             119  c6                             907 
    x23       c0                             269  Obj                            642 
    x23       c9                             934  c1                             210 
    x23       c2                             908  c5                             354 
    x23       c7                             155  c4                              77 
    x23       c3                             904 
    x24       c3                              99  c0                             651 
    x24       c6                             186  c9                             772 
    x24       Obj                            781  c1                             234 
    x24       c7                             546  c2                             267 
    x24       c4                             624  c5                              84 
    x24       c8                              52 
    x25       c9                             277  c0                             784 
    x25       c3                             230  c1                             207 
    x25       c7                              54  c8                             846 
    x25       Obj                            751  c6                             305 
    x25       c5                             769  c4                             154 
    x25       c2                             295 
    x26       Obj                            521  c5                             889 
    x26       c9                             471  c2                             579 
    x26       c0                             444  c3                             336 
    x26       c7                             734  c8                             197 
    x26       c4                             617  c1                             488 
    x26       c6                              84 
    x27       c5                             211  c0                             864 
    x27       c3                             283  Obj                            972 
    x27       c7                             814  c6                             716 
    x27       c1                             581  c8                             916 
    x27       c9                             783  c4                             453 
    x27       c2                             674 
    x28       c1                             459  c9                             743 
    x28       Obj                            578  c7                             384 
    x28       c6                             574  c2                              80 
    x28       c3                             266  c8                             183 
    x28       c0                              87  c4                             281 
    x28       c5                             526 
    x29       c8                             866  c9                             615 
    x29       c7                             784  c6                             325 
    x29       c0                             781  Obj                            792 
    x29       c4                             651  c3                             287 
    x29       c2                             237  c5                             503 
    x29       c1                              51 
    x30       c0                             944  c6                              11 
    x30       c3                             979  c7                             867 
    x30       c1                             773  Obj                           1087 
    x30       c4                             710  c8                             967 
    x30       c9                             970  c5                             778 
    x30       c2                             873 
    x31       c7                             216  c4                             324 
    x31       c1                             552  c2                             772 
    x31       c0                             340  Obj                            809 
    x31       c6                             740  c8                             560 
    x31       c3                             443  c5                             870 
    x31       c9                             755 
    x32       c7                             128  c3                             440 
    x32       c4                              54  c6                             472 
    x32       c2                             331  c1                             785 
    x32       c5                             914  c9                             110 
    x32       c8                             669  c0                             348 
    x32       Obj                            574 
    x33       c2                             900  c0                              42 
    x33       c8                             352  c1                             646 
    x33       c3                             821  c9                             517 
    x33       Obj                            940  c4                             620 
    x33       c7                             850  c6                             758 
    x33       c5                             897 
    x34       c4                             724  c6                             690 
    x34       c9                             670  c0                             871 
    x34       c3                             380  c5                              30 
    x34       c7                             459  c2                             636 
    x34       Obj                           1030  c1                             813 
    x34       c8                              83 
    x35       c4                             584  c5                             610 
    x35       c9                             990  c3                             614 
    x35       Obj                            812  c7                             319 
    x35       c8                             539  c2                               2 
    x35       c1                             680  c0                             738 
    x35       c6                             667 
    x36       c6                             742  c2                             496 
    x36       c1                             835  c9                             676 
    x36       c7                             444  c8                             950 
    x36       Obj                            776  c5                             722 
    x36       c4                             582  c3                             731 
    x36       c0                             646 
    x37       c4                             572  c9                             451 
    x37       c8                             246  c6                             695 
    x37       c2                             223  c1                             730 
    x37       Obj                            764  c5                             521 
    x37       c7                             348  c0                             585 
    x37       c3                             264 
    x38       c0                             212  Obj                            439 
    x38       c2                             987  c4                             721 
    x38       c1                             450  c6                             293 
    x38       c9                             379  c7                             204 
    x38       c8                             362  c5                             444 
    x38       c3                             187 
    x39       c8                             422  c6                             899 
    x39       Obj                            574  c0                             816 
    x39       c5                             692  c1                             636 
    x39       c7                             328  c2                             194 
    x39       c9                             693  c4                             111 
    x39       c3                             723 
    x40       c3                             897  c9                             402 
    x40       c7                             915  c1                             458 
    x40       c4                             998  c2                             901 
    x40       c6                             955  c0                              17 
    x40       c8                              85  c5                             234 
    x40       Obj                           1081 
    x41       Obj                           1139  c0                             834 
    x41       c8                             738  c7                             840 
    x41       c4                             378  c1                             665 
    x41       c6                             859  c5                             567 
    x41       c2                             827  c9                             590 
    x41       c3                             316 
    x42       c8                             644  c0                             783 
    x42       c9                             804  c5                             460 
    x42       c7                             826  Obj                           1089 
    x42       c3                             427  c6                             461 
    x42       c2                             230  c1                             499 
    x42       c4                             936 
    x43       c1                             919  c8                             525 
    x43       c0                             513  c9                             848 
    x43       c6                             577  c3                             140 
    x43       c4                             611  Obj                            807 
    x43       c5                             349  c2                             671 
    x43       c7                             826 
    x44       c7                             589  Obj                            657 
    x44       c8                             104  c1                             668 
    x44       c2                             252  c0                             406 
    x44       c9                             635  c3                             854 
    x44       c6                             747  c4                             652 
    x44       c5                             547 
    x45       c5                             925  Obj                            900 
    x45       c1                             485  c2                             731 
    x45       c0                             659  c7                             963 
    x45       c4                             268  c9                             927 
    x45       c8                             611  c3                             415 
    x45       c6                             644 
    x46       c8                             889  c3                             703 
    x46       c6                             853  c5                             942 
    x46       c7                             275  c1                             181 
    x46       c2                             604  c9                             741 
    x46       c0                              69  c4                              64 
    x46       Obj                            699 
    x47       c3                             801  c1                             474 
    x47       c2                             104  c0                             318 
    x47       c4                             460  c6                             186 
    x47       c9                             240  c8                             558 
    x47       c5                             334  Obj                            534 
    x47       c7                             800 
    x48       c8                             695  Obj                            989 
    x48       c6                             588  c4                             251 
    x48       c2                              64  c9                             860 
    x48       c7                             751  c0                             287 
    x48       c5                             262  c3                             347 
    x48       c1                             879 
    x49       c5                             634  c7                             424 
    x49       c3                             532  c0                             198 
    x49       c1                             119  c8                             414 
    x49       c9                             948  c4                             906 
    x49       c2                             505  Obj                            812 
    x49       c6                             548 
    x50       c3                             322  c8                              26 
    x50       c9                              82  c4                             767 
    x50       c2                              79  c7                             743 
    x50       c5                             419  c6                             521 
    x50       Obj                            862  c0                             328 
    x50       c1                             821 
    x51       c6                             173  c8                              86 
    x51       c2                             765  c7                             380 
    x51       c4                             776  c1                             851 
    x51       c3                             232  c0                             774 
    x51       c9                             527  c5                             461 
    x51       Obj                            518 
    x52       c3                             324  c8                             206 
    x52       c5                             169  c2                             744 
    x52       c7                             744  c6                             504 
    x52       c1                             788  c4                              45 
    x52       c0                              81  c9                             260 
    x52       Obj                            580 
    x53       c5                             398  c2                             496 
    x53       c6                             989  c0                             185 
    x53       c7                             716  c1                              72 
    x53       c4                             953  c3                             178 
    x53       Obj                            878  c9                             526 
    x53       c8                             575 
    x54       c1                             130  c8                             747 
    x54       c3                              88  c6                             255 
    x54       c5                             125  c0                             828 
    x54       c9                             479  Obj                            602 
    x54       c7                             484  c4                             612 
    x54       c2                             632 
    x55       c5                             893  c4                             587 
    x55       c9                             282  Obj                            519 
    x55       c6                             789  c0                             742 
    x55       c7                             284  c1                              64 
    x55       c2                             410  c8                              87 
    x55       c3                             439 
    x56       Obj                            664  c4                             109 
    x56       c3                             824  c5                             291 
    x56       c8                             970  c0                             180 
    x56       c2                             942  c9                             559 
    x56       c1                             107  c7                             696 
    x56       c6                             429 
    x57       c6                             625  c5                             666 
    x57       c9                             882  c1                               1 
    x57       c8                             358  Obj                            971 
    x57       c2                             205  c3                             147 
    x57       c7                             873  c4                             969 
    x57       c0                             556 
    x58       c8                             581  c9                             724 
    x58       c0                             182  c4                             863 
    x58       Obj                            772  c3                             633 
    x58       c2                             786  c1                             740 
    x58       c5                             655  c6                             826 
    x58       c7                             771 
    x59       c5                             462  c3                             477 
    x59       c7                             310  c6                             731 
    x59       c9                             256  c1                             946 
    x59       c4                             799  c2                             682 
    x59       c8                             115  c0                             921 
    x59       Obj                            619 
    x60       c6                             177  c1                             969 
    x60       c5                             927  c9                             281 
    x60       c8                             709  c0                             468 
    x60       c2                             863  c4                             880 
    x60       Obj                           1103  c7                             979 
    x60       c3                             407 
    x61       c6                             224  c5                             484 
    x61       c2                             463  Obj                            770 
    x61       c9                             616  c8                             477 
    x61       c7                              43  c4                             750 
    x61       c3                             501  c1                             162 
    x61       c0                             213 
    x62       c2                              96  c6                             338 
    x62       c9                             309  c0                              37 
    x62       c5                             492  c8                             228 
    x62       c7                             404  c4                             825 
    x62       Obj                            832  c1                             236 
    x62       c3                             703 
    x63       Obj                            712  c4                              58 
    x63       c6                             429  c7                             403 
    x63       c2                             554  c8                             127 
    x63       c5                             450  c3                             627 
    x63       c9                             943  c0                             302 
    x63       c1                             457 
    x64       c2                             216  c7                             185 
    x64       c5                             803  c6                             135 
    x64       c9                             741  c8                             161 
    x64       c1                             729  c0                             492 
    x64       c3                             646  Obj                            518 
    x64       c4                             566 
    x65       c4                             191  c8                             899 
    x65       Obj                            917  c2                             554 
    x65       c3                             939  c6                             621 
    x65       c5                             253  c7                             908 
    x65       c1                             781  c9                             165 
    x65       c0                             315 
    x66       Obj                            817  c2                             949 
    x66       c6                             166  c9                              90 
    x66       c3                             756  c1                             731 
    x66       c5                             817  c7                             194 
    x66       c0                             846  c4                             186 
    x66       c8                             301 
    x67       c8                             257  c3                             206 
    x67       c7                              36  c5                             187 
    x67       c2                             170  c9                             339 
    x67       Obj                            786  c1                             915 
    x67       c4                              57  c0                             845 
    x67       c6                             856 
    x68       c7                             586  Obj                            996 
    x68       c9                             131  c0                             831 
    x68       c1                             680  c2                             501 
    x68       c6                             867  c4                             332 
    x68       c5                             669  c8                             799 
    x68       c3                             897 
    x69       c7                             640  c3                             425 
    x69       c0                             148  c1                             936 
    x69       c4                             913  c8                             250 
    x69       c5                             452  c9                             657 
    x69       Obj                            933  c6                             864 
    x69       c2                              96 
    x70       c7                             838  c6                             981 
    x70       c3                             109  c5                             578 
    x70       c8                             854  c2                             856 
    x70       c9                             580  Obj                           1021 
    x70       c4                             919  c0                             145 
    x70       c1                             866 
    x71       c4                             232  c8                             584 
    x71       c3                             993  c0                             399 
    x71       c1                             347  c7                             734 
    x71       c6                             319  Obj                            899 
    x71       c5                             548  c2                             284 
    x71       c9                             933 
    x72       c0                              95  c3                             292 
    x72       Obj                            703  c1                             895 
    x72       c8                             973  c7                             260 
    x72       c5                             170  c2                             393 
    x72       c6                             804  c4                             574 
    x72       c9                             180 
    x73       c7                             496  c2                             114 
    x73       Obj                            471  c9                             752 
    x73       c1                              20  c3                             626 
    x73       c5                             663  c8                             680 
    x73       c6                             401  c0                               7 
    x73       c4                             608 
    x74       c2                             491  c5                             365 
    x74       c7                             988  c6                             679 
    x74       c8                             555  c9                             634 
    x74       Obj                           1043  c0                             981 
    x74       c3                             771  c4                             848 
    x74       c1                             645 
    x75       c6                             713  c7                             552 
    x75       c5                              54  c9                             933 
    x75       c8                             725  c2                             826 
    x75       Obj                            709  c4                             143 
    x75       c1                             643  c3                              29 
    x75       c0                             671 
    x76       Obj                            906  c5                             286 
    x76       c7                             149  c4                             887 
    x76       c2                             589  c6                              78 
    x76       c0                             418  c8                             217 
    x76       c9                             285  c3                             762 
    x76       c1                             750 
    x77       c1                             273  c5                              61 
    x77       c8                             503  c2                             217 
    x77       Obj                            633  c4                             866 
    x77       c3                             785  c9                             313 
    x77       c7                              64  c0                             377 
    x77       c6                             633 
    x78       c3                             448  c4                             234 
    x78       c8                             548  Obj                            553 
    x78       c6                             374  c2                             616 
    x78       c0                             291  c7                             624 
    x78       c9                             606  c1                             294 
    x78       c5                             848 
    x79       c5                             424  c9                             360 
    x79       c4                             764  c1                             715 
    x79       c8                             149  c0                              76 
    x79       c2                             713  c3                             664 
    x79       c6                             723  Obj                            570 
    x79       c7                             255 
    x80       c7                             775  c2                             297 
    x80       c6                             116  Obj                            628 
    x80       c5                              43  c9                             589 
    x80       c8                             216  c3                             578 
    x80       c0                             816  c4                             657 
    x80       c1                             661 
    x81       c3                             361  c8                             477 
    x81       c6                             537  c4                             284 
    x81       c0                             472  c9                              72 
    x81       Obj                            791  c1                             910 
    x81       c5                             628  c7                             703 
    x81       c2                             159 
    x82       c2                             578  c1                             571 
    x82       c0                             509  c8                             719 
    x82       c9                             978  c6                             204 
    x82       c3                             124  c7                             847 
    x82       c5                             235  c4                             633 
    x82       Obj                            932 
    x83       Obj                            660  c3                             478 
    x83       c8                             179  c5                             323 
    x83       c4                             619  c1                             165 
    x83       c2                             264  c7                             734 
    x83       c6                             523  c0                             412 
    x83       c9                             871 
    x84       c2                             410  c5                             322 
    x84       c4                             251  c7                             887 
    x84       c6                             688  Obj                            928 
    x84       c9                             518  c0                              21 
    x84       c1                               2  c8                             980 
    x84       c3                             765 
    x85       c0                             633  c5                             307 
    x85       c3                              53  c6                             463 
    x85       c7                             913  c8                             436 
    x85       Obj                            842  c9                             395 
    x85       c1                             226  c2                             740 
    x85       c4                             776 
    x86       c7                             269  Obj                            852 
    x86       c0                             173  c4                             443 
    x86       c1                               7  c3                             587 
    x86       c6                             667  c2                             452 
    x86       c8                             262  c9                             354 
    x86       c5                             438 
    x87       c0                             472  c7                             518 
    x87       c6                             424  Obj                            591 
    x87       c2                             670  c9                             957 
    x87       c5                             426  c1                             150 
    x87       c4                             549  c3                             250 
    x87       c8                             367 
    x88       c2                             377  c1                             625 
    x88       c4                             438  c6                             843 
    x88       c5                             394  Obj                            539 
    x88       c3                             872  c8                             609 
    x88       c9                              29  c0                             622 
    x88       c7                             428 
    x89       c1                             531  c9                             767 
    x89       c2                             602  c7                             526 
    x89       c0                             265  c8                             511 
    x89       Obj                            719  c5                             598 
    x89       c6                             948  c4                             437 
    x89       c3                             383 
    x90       c7                             273  c3                             751 
    x90       Obj                            827  c6                             367 
    x90       c0                             229  c8                             793 
    x90       c1                             745  c2                             756 
    x90       c4                             269  c9                              73 
    x90       c5                             561 
    x91       c5                             396  c6                             226 
    x91       c0                             890  c4                             219 
    x91       c7                             863  c2                              22 
    x91       c9                             479  c8                             585 
    x91       Obj                            624  c1                              92 
    x91       c3                             579 
    x92       c0                             229  c4                             174 
    x92       c1                             486  c9                             914 
    x92       c8                             479  c6                             219 
    x92       c3                             753  c5                             851 
    x92       Obj                            811  c2                             144 
    x92       c7                             447 
    x93       c0                             126  c8                             881 
    x93       Obj                            988  c9                             624 
    x93       c4                             630  c1                             713 
    x93       c5                             533  c3                             473 
    x93       c6                             950  c7                               8 
    x93       c2                              79 
    x94       c0                             947  c9                             578 
    x94       Obj                            835  c4                             191 
    x94       c8                             818  c1                             686 
    x94       c6                              52  c7                             562 
    x94       c3                             604  c5                             853 
    x94       c2                             325 
    x95       Obj                            684  c1                             839 
    x95       c3                             215  c9                             169 
    x95       c4                             569  c0                             167 
    x95       c6                              85  c5                             134 
    x95       c8                             748  c2                             564 
    x95       c7                             820 
    x96       c8                             317  c3                             307 
    x96       c9                             126  c5                              17 
    x96       c4                             832  c0                               4 
    x96       c6                             399  c7                             310 
    x96       c2                              83  Obj                            586 
    x96       c1                             380 
    x97       c1                             202  c3                             173 
    x97       c4                             102  c9                             563 
    x97       c6                             998  c7                             631 
    x97       c0                             187  Obj                            871 
    x97       c2                             278  c8                             837 
    x97       c5                             252 
    x98       c6                             742  Obj                            655 
    x98       c2                             376  c9                             309 
    x98       c5                             445  c0                             952 
    x98       c7                              24  c4                             599 
    x98       c8                             147  c1                             911 
    x98       c3                             871 
    x99       c3                             840  c4                             275 
    x99       c5                              43  c2                             389 
    x99       c8                             667  Obj                            813 
    x99       c0                             356  c7                             511 
    x99       c6                              21  c1                             633 
    x99       c9                             276 
    INTEND    'MARKER'                            'INTEND'                           
RHS
    RHS       c0                           34806  c1                           38798 
    RHS       c2                           35281  c3                           39785 
    RHS       c4                           38870  c5                           34255 
    RHS       c6                           37976  c7                           39761 
    RHS       c8                           39238  c9                           39017 
BOUNDS
 BV Bound     x0                                 
 BV Bound     x1                                 
 BV Bound     x2                                 
 BV Bound     x3                                 
 BV Bound     x4                                 
 BV Bound     x5                                 
 BV Bound     x6                                 
 BV Bound     x7                                 
 BV Bound     x8                                 
 BV Bound     x9                                 
 BV Bound     x10                                
 BV Bound     x11                                
 BV Bound     x12                                
 BV Bound     x13                                
 BV Bound     x14                                
 BV Bound     x15                                
 BV Bound     x16                                
 BV Bound     x17                                
 BV Bound     x18                                
 BV Bound     x19                                
 BV Bound     x20                                
 BV Bound     x21                                
 BV Bound     x22                                
 BV Bound     x23                                
 BV Bound     x24                                
 BV Bound     x25                                
 BV Bound     x26                                
 BV Bound     x27                                
 BV Bound     x28                                
 BV Bound     x29                                
 BV Bound     x30                                
 BV Bound     x31                                
 BV Bound     x32                                
 BV Bound     x33                                
 BV Bound     x34                                
 BV Bound     x35                                
 BV Bound     x36                                
 BV Bound     x37                                
 BV Bound     x38                                
 BV Bound     x39                                
 BV Bound     x40                                
 BV Bound     x41                                
 BV Bound     x42                                
 BV Bound     x43                                
 BV Bound     x44                                
 BV Bound     x45                                
 BV Bound     x46                                
 BV Bound     x47                                
 BV Bound     x48                                
 BV Bound     x49                                
 BV Bound     x50                                
 BV Bound     x51                                
 BV Bound     x52                                
 BV Bound     x53                                
 BV Bound     x54                                
 BV Bound     x55                                
 BV Bound     x56                                
 BV Bound     x57                                
 BV Bound     x58                                
 BV Bound     x59                                
 BV Bound     x60                                
 BV Bound     x61                                
 BV Bound     x62                                
 BV Bound     x63                                
 BV Bound     x64                                
 BV Bound     x65                                
 BV Bound     x66                                
 BV Bound     x67                                
 BV Bound     x68                                
 BV Bound     x69                                
 BV Bound     x70                                
 BV Bound     x71                                
 BV Bound     x72                                
 BV Bound     x73                                
 BV Bound     x74                                
 BV Bound     x75                                
 BV Bound     x76                                
 BV Bound     x77                                
 BV Bound     x78                                
 BV Bound     x79                                
 BV Bound     x80                                
 BV Bound     x81                                
 BV Bound     x82                                
 BV Bound     x83                                
 BV Bound     x84                                
 BV Bound     x85                                
 BV Bound     x86                                
 BV Bound     x87                                
 BV Bound     x88                                
 BV Bound     x89                                
 BV Bound     x90                                
 BV Bound     x91                                
 BV Bound     x92                                
 BV Bound     x93                                
 BV Bound     x94                                
 BV Bound     x95                                
 BV Bound     x96                                
 BV Bound     x97                                
 BV Bound     x98                                
 BV Bound     x99                                
ENDATA