* SCIP STATISTICS
*   Problem name     : mknap_0
*   Variables        : 100 (100 binary, 0 integer, 0 implicit integer, 0 continuous)
*   Constraints      : 10
NAME          mknap_0
OBJSENSE
  MAX
ROWS
 N  Obj 
 L  c0 
 L  c1 
 L  c2 
 L  c3 
 L  c4 
 L  c5 
 L  c6 
 L  c7 
 L  c8 
 L  c9 
COLUMNS
    INTSTART  'MARKER'                            'INTORG'                           
    x0        Obj                            803  c5                               4 
    x0        c4                              98  c6                             926 
    x0        c3                             791  c7                             682 
    x0        c2                              24  c8                             942 
    x0        c1                             297  c9                             608 
    x0        c0                             300 
    x1        Obj                            728  c5                             459 
    x1        c4                             947  c6                             396 
    x1        c3                             715  c7                             495 
    x1        c2                             638  c8                             431 
    x1        c1                             539  c9                             446 
    x1        c0                              78 
    x2        c9                             555  c5                             106 
    x2        Obj                            743  c3                             560 
    x2        c1                             903  c4                             956 
    x2        c0                             275  c8                             834 
    x2        c7                             207  c2                             899 
    x2        c6                             649 
    x3        c9                              22  c8                             554 
    x3        c2                             982  c1                              75 
    x3        c6                             219  c7                             741 
    x3        c3                             703  Obj                            464 
    x3        c4                             509  c0                             724 
    x3        c5                              86 
    x4        c4                             298  c3                             415 
    x4        c0                             674  c6                             598 
    x4        Obj                            853  c1                             384 
    x4        c7                             459  c2                             207 
    x4        c5                             392  c8                             850 
    x4        c9                              45 
    x5        c8                             484  c3                             363 
    x5        c1                             474  c5                             345 
    x5        c6                             352  c7                             268 
    x5        Obj                            587  c4                             728 
    x5        c0                             227  c9                             384 
    x5        c2                             788 
    x6        Obj                            856  c3                             239 
    x6        c8                              58  c4                             253 
    x6        c0                              84  c7                             898 
    x6        c5                             585  c9                             422 
    x6        c1                             909  c2                             194 
    x6        c6                             454 
    x7        c9                             518  c5                             761 
    x7        c1                               5  c7                             380 
    x7        c2                             455  c4                             779 
    x7        Obj                            579  c8                             191 
    x7        c0                             587  c3                             357 
    x7        c6                             493 
    x8        c5                             193  c7                             440 
    x8        c2                             217  c4                             244 
    x8        c1                              97  c6                               1 
    x8        c0                             768  c8                             108 
    x8        Obj                            359  c3                             953 
    x8        c9                              80 
    x9        c9                             954  c4                             208 
    x9        c8                              75  c6                             968 
    x9        c0                              51  Obj                            635 
    x9        c1                             323  c3                             567 
    x9        c7                             138  c5                             746 
    x9        c2                              71 
    x10       c9                             960  c3                             368 
    x10       Obj                            661  c4                             324 
    x10       c8                             792  c6                             979 
    x10       c0                             446  c5                              19 
    x10       c7                             413  c2                             799 
    x10       c1                             326 
    x11       c1                             125  c8                             801 
    x11       c0                             955  c9                             253 
    x11       c2                             539  c7                             193 
    x11       c3                             349  c6                             240 
    x11       c4                             227  c5                             393 
    x11       Obj                            679 
    x12       Obj                            583  c5                              73 
    x12       c3                              21  c1                             578 
    x12       c7                             148  c9                             285 
    x12       c8                             451  c0                             886 
    x12       c6                             675  c2                             720 
    x12       c4                              50 
    x13       c5                             932  c8                             994 
    x13       c3                             874  c7                             348 
    x13       c9                             425  c0                             871 
    x13       c1                             415  c6                               6 
    x13       c2                             713  c4                             708 
    x13       Obj                           1026 
    x14       Obj                            637  c4                             719 
    x14       c5                             117  c6                             373 
    x14       c7                             642  c1                             420 
    x14       c2                             443  c0                             557 
    x14       c3                             874  c9                             552 
    x14       c8                             950 
    x15       c9                             513  c1                             581 
    x15       c2                             268  c7                             148 
    x15       c6                             499  c8                             145 
    x15       Obj                            652  c3                             872 
    x15       c0                             978  c5                             389 
    x15       c4                             158 
    x16       c3                             443  Obj                            603 
    x16       c5                               2  c9                             984 
    x16       c1                             272  c4                             787 
    x16       c7                             274  c6                              51 
    x16       c0                             336  c8                             512 
    x16       c2                             257 
    x17       c7                             830  c3                              56 
    x17       c9                             757  Obj                            583 
    x17       c4                              33  c2                             861 
    x17       c1                             455  c5                              10 
    x17       c6                             699  c0                             442 
    x17       c8                             956 
    x18       c8                             345  c1                             895 
    x18       c5                             184  c6                             731 
    x18       c0                              71  c3                             632 
    x18       c9                             219  Obj                           1017 
    x18       c7                             679  c2                             891 
    x18       c4                             536 
    x19       Obj                            817  c5                             406 
    x19       c8                              52  c0                             222 
    x19       c9                              50  c2                             857 
    x19       c6                             134  c3                             798 
    x19       c4                              60  c7                             964 
    x19       c1                             294 
    x20       c1                             633  c7                              82 
    x20       c3                             255  c4                             327 
    x20       Obj                            633  c9                             772 
    x20       c8                             750  c0                             505 
    x20       c5                             314  c2                             633 
    x20       c6                             899 
    x21       c9                             956  c1                             858 
    x21       c2                             620  c4                             852 
    x21       Obj                            633  c5                             256 
    x21       c0                             327  c6                             312 
    x21       c3                             773  c8                             776 
    x21       c7                             147 
    x22       c8                             653  Obj                            672 
    x22       c0                             706  c1                             215 
    x22       c9                             434  c2                             336 
    x22       c5                               3  c7                             289 
    x22       c4                             128  c3                              36 
    x22       c6                             402 
    x23       c8                              15  c6                             997 
    x23       c0                              86  Obj                            540 
    x23       c9                             427  c1                             157 
    x23       c2                             912  c5                             544 
    x23       c7                             557  c4                             105 
    x23       c3                             692 
    x24       c3                             239  c0                             596 
    x24       c6                             449  c9                             417 
    x24       Obj                            732  c1                             807 
    x24       c7                             396  c2                             500 
    x24       c4                             968  c5                             903 
    x24       c8                             515 
    x25       c9                             676  c0                             257 
    x25       c3                             485  c1                             322 
    x25       c7                             805  c8                             296 
    x25       Obj                            879  c6                             494 
    x25       c5                             839  c4                             314 
    x25       c2                             361 
    x26       Obj                           1031  c5                             640 
    x26       c9                             227  c2                              66 
    x26       c0                             726  c3                             980 
    x26       c7                             679  c8                             223 
    x26       c4                             978  c1                             670 
    x26       c6                             621 
    x27       c5                             893  c0                             420 
    x27       c3                             381  Obj                            801 
    x27       c7                             912  c6                             938 
    x27       c1                             997  c8                              19 
    x27       c9                             693  c4                             368 
    x27       c2                             469 
    x28       c1                             315  c9                             279 
    x28       Obj                            892  c7                             630 
    x28       c6                             211  c2                             789 
    x28       c3                             886  c8                             192 
    x28       c0                             835  c4                             318 
    x28       c5                             606 
    x29       c8                             914  c9                              50 
    x29       c7                             230  c6                             749 
    x29       c0                             792  Obj                           1030 
    x29       c4                             826  c3                             875 
    x29       c2                             717  c5                             660 
    x29       c1                             101 
    x30       c0                             739  c6                             169 
    x30       c3                             592  c7                             943 
    x30       c1                             489  Obj                            844 
    x30       c4                             407  c8                             388 
    x30       c9                             249  c5                             622 
    x30       c2                             244 
    x31       c7                             254  c4                             123 
    x31       c1                             784  c2                              73 
    x31       c0                             373  Obj                            659 
    x31       c6                             118  c8                             272 
    x31       c3                             345  c5                              86 
    x31       c9                             199 
    x32       c7                              54  c3                             863 
    x32       c4                             617  c6                             413 
    x32       c2                             780  c1                             479 
    x32       c5                             475  c9                             422 
    x32       c8                             474  c0                             796 
    x32       Obj                            952 
    x33       c2                             801  c0                             769 
    x33       c8                             673  c1                             836 
    x33       c3                             778  c9                             485 
    x33       Obj                            917  c4                             943 
    x33       c7                             746  c6                             367 
    x33       c5                             297 
    x34       c4                             757  c6                             514 
    x34       c9                             747  c0                             745 
    x34       c3                             985  c5                             420 
    x34       c7                             563  c2                             894 
    x34       Obj                           1078  c1                             224 
    x34       c8                             229 
    x35       c4                             326  c5                             672 
    x35       c9                             680  c3                             520 
    x35       Obj                           1012  c7                             349 
    x35       c8                             490  c2                             185 
    x35       c1                             917  c0                             540 
    x35       c6                             726 
    x36       c6                             802  c2                             947 
    x36       c1                             898  c9                             353 
    x36       c7                             878  c8                               6 
    x36       Obj                            709  c5                             928 
    x36       c4                             620  c3                             385 
    x36       c0                             966 
    x37       c4                             687  c9                             545 
    x37       c8                             753  c6                             170 
    x37       c2                             680  c1                             894 
    x37       Obj                            699  c5                             409 
    x37       c7                             552  c0                             450 
    x37       c3                             110 
    x38       c0                             721  Obj                           1091 
    x38       c2                             917  c4                              63 
    x38       c1                             347  c6                             440 
    x38       c9                             254  c7                             721 
    x38       c8                             670  c5                             969 
    x38       c3                             905 
    x39       c8                             278  c6                             501 
    x39       Obj                            887  c0                             242 
    x39       c5                             696  c1                             576 
    x39       c7                             367  c2                             275 
    x39       c9                             128  c4                             439 
    x39       c3                             501 
    x40       c3                              69  c9                             710 
    x40       c7                             803  c1                             434 
    x40       c4                             614  c2                             887 
    x40       c6                             132  c0                             559 
    x40       c8                             158  c5                             694 
    x40       Obj                            802 
    x41       Obj                           1016  c0                             352 
    x41       c8                             541  c7                             132 
    x41       c4                             533  c1                             834 
    x41       c6                             679  c5                             276 
    x41       c2                             792  c9                             469 
    x41       c3                             944 
    x42       c8                             795  c0                             990 
    x42       c9                              97  c5                             507 
    x42       c7                             982  Obj                            757 
    x42       c3                             922  c6                             671 
    x42       c2                             986  c1                             243 
    x42       c4                             522 
    x43       c1                             940  c8                             163 
    x43       c0                             951  c9                             585 
    x43       c6                             373  c3                             106 
    x43       c4                             174  Obj                            810 
    x43       c5                             431  c2                             424 
    x43       c7                             221 
    x44       c7                             891  Obj                           1023 
    x44       c8                             998  c1                             403 
    x44       c2                             167  c0                             875 
    x44       c9                             398  c3                             680 
    x44       c6                             164  c4                             439 
    x44       c5                             252 
    x45       c5                             910  Obj                            757 
    x45       c1                             326  c2                             108 
    x45       c0                             329  c7                             751 
    x45       c4                             862  c9                             780 
    x45       c8                             528  c3                             315 
    x45       c6                             295 
    x46       c8                             394  c3                             735 
    x46       c6                             137  c5                             206 
    x46       c7                             296  c1                             408 
    x46       c2                             389  c9                             700 
    x46       c0                             803  c4                             981 
    x46       Obj                            518 
    x47       c3                             912  c1                             353 
    x47       c2                             258  c0                             892 
    x47       c4                             972  c6                             860 
    x47       c9                             361  c8                              65 
    x47       c5                             260  Obj                            632 
    x47       c7                             406 
    x48       c8                             614  Obj                           1091 
    x48       c6                             184  c4                             789 
    x48       c2                             941  c9                             509 
    x48       c7                             689  c0                              52 
    x48       c5                             666  c3                             904 
    x48       c1                             945 
    x49       c5                             464  c7                             721 
    x49       c3                             585  c0                             681 
    x49       c1                             307  c8                             349 
    x49       c9                              36  c4                             573 
    x49       c2                             963  Obj                            595 
    x49       c6                             358 
    x50       c3                             877  c8                             198 
    x50       c9                             216  c4                             262 
    x50       c2                              47  c7                              77 
    x50       c5                             784  c6                             299 
    x50       Obj                            630  c0                             388 
    x50       c1                              48 
    x51       c6                             696  c8                             451 
    x51       c2                             869  c7                             199 
    x51       c4                             989  c1                             302 
    x51       c3                             475  c0                             824 
    x51       c9                             357  c5                             372 
    x51       Obj                            916 
    x52       c3                             136  c8                             325 
    x52       c5                             740  c2                             711 
    x52       c7                             803  c6                             263 
    x52       c1                             287  c4                             573 
    x52       c0                             892  c9                             912 
    x52       Obj                            759 
    x53       c5                             948  c2                             117 
    x53       c6                             966  c0                             381 
    x53       c7                             187  c1                             621 
    x53       c4                             184  c3                              92 
    x53       Obj                            674  c9                             927 
    x53       c8                             136 
    x54       c1                             546  c8                             570 
    x54       c3                             495  c6                             570 
    x54       c5                             998  c0                              52 
    x54       c9                             188  Obj                            553 
    x54       c7                             191  c4                             604 
    x54       c2                             170 
    x55       c5                             314  c4                             828 
    x55       c9                             229  Obj                            703 
    x55       c6                             155  c0                             774 
    x55       c7                             769  c1                             749 
    x55       c2                             725  c8                             635 
    x55       c3                             799 
    x56       Obj                            530  c4                             336 
    x56       c3                             300  c5                             887 
    x56       c8                             921  c0                             372 
    x56       c2                             221  c9                             161 
    x56       c1                             869  c7                             174 
    x56       c6                             629 
    x57       c6                              12  c5                             968 
    x57       c9                             309  c1                             147 
    x57       c8                             192  Obj                            790 
    x57       c2                             131  c3                             479 
    x57       c7                             999  c4                             503 
    x57       c0                             368 
    x58       c8                             919  c9                             765 
    x58       c0                             969  c4                            1000 
    x58       Obj                            628  c3                             540 
    x58       c2                             370  c1                             870 
    x58       c5                             257  c6                             164 
    x58       c7                              84 
    x59       c5                             230  c3                             125 
    x59       c7                             598  c6                             261 
    x59       c9                             834  c1                             329 
    x59       c4                             515  c2                             371 
    x59       c8                             657  c0                             929 
    x59       Obj                            671 
    x60       c6                             471  c1                             115 
    x60       c5                              62  c9                             220 
    x60       c8                             169  c0                             378 
    x60       c2                             792  c4                             954 
    x60       Obj                            667  c7                             886 
    x60       c3                             820 
    x61       c6                             833  c5                             410 
    x61       c2                             460  Obj                            885 
    x61       c9                             310  c8                             643 
    x61       c7                             747  c4                             751 
    x61       c3                             712  c1                             450 
    x61       c0                             449 
    x62       c2                             264  c6                             958 
    x62       c9                             538  c0                             249 
    x62       c5                             718  c8                             755 
    x62       c7                              63  c4                             627 
    x62       Obj                            527  c1                             534 
    x62       c3                             258 
    x63       Obj                            970  c4                             776 
    x63       c6                             805  c7                             225 
    x63       c2                             518  c8                             548 
    x63       c5                             543  c3                             299 
    x63       c9                             399  c0                             255 
    x63       c1                             592 
    x64       c2                             111  c7                             655 
    x64       c5                             553  c6                              78 
    x64       c9                             247  c8                             638 
    x64       c1                             609  c0                             123 
    x64       c3                             776  Obj                            683 
    x64       c4                             676 
    x65       c4                             899  c8                             576 
    x65       Obj                            716  c2                             127 
    x65       c3                             587  c6                             352 
    x65       c5                             397  c7                              10 
    x65       c1                              25  c9                             624 
    x65       c0                             745 
    x66       Obj                            714  c2                             370 
    x66       c6                             857  c9                             699 
    x66       c3                             358  c1                              16 
    x66       c5                             728  c7                             984 
    x66       c0                             978  c4                             870 
    x66       c8                             666 
    x67       c8                             133  c3                             503 
    x67       c7                             880  c5                             640 
    x67       c2                             875  c9                             154 
    x67       Obj                            919  c1                             392 
    x67       c4                             974  c0                             862 
    x67       c6                             253 
    x68       c7                             378  Obj                            504 
    x68       c9                             748  c0                             302 
    x68       c1                             202  c2                             121 
    x68       c6                             548  c4                             516 
    x68       c5                             306  c8                             709 
    x68       c3                             815 
    x69       c7                             386  c3                             168 
    x69       c0                             549  c1                               5 
    x69       c4                               5  c8                             794 
    x69       c5                             471  c9                              77 
    x69       Obj                            703  c6                             250 
    x69       c2                              69 
    x70       c7                             804  c6                              75 
    x70       c3                             979  c5                             118 
    x70       c8                             457  c2                             396 
    x70       c9                             575  Obj                            924 
    x70       c4                             891  c0                             229 
    x70       c1                             818 
    x71       c4                             848  c8                             334 
    x71       c3                             658  c0                             418 
    x71       c1                             195  c7                             451 
    x71       c6                              55  Obj                            533 
    x71       c5                             499  c2                             485 
    x71       c9                             553 
    x72       c0                             389  c3                             840 
    x72       Obj                            510  c1                             444 
    x72       c8                             134  c7                             360 
    x72       c5                             463  c2                             433 
    x72       c6                             823  c4                             218 
    x72       c9                             454 
    x73       c7                             779  c2                             305 
    x73       Obj                            993  c9                             161 
    x73       c1                             571  c3                             984 
    x73       c5                             987  c8                             105 
    x73       c6                             187  c0                             768 
    x73       c4                             664 
    x74       c2                             589  c5                             916 
    x74       c7                             364  c6                             679 
    x74       c8                             847  c9                             640 
    x74       Obj                            840  c0                             961 
    x74       c3                             974  c4                              79 
    x74       c1                             948 
    x75       c6                             627  c7                             154 
    x75       c5                             425  c9                             693 
    x75       c8                             949  c2                             908 
    x75       Obj                            538  c4                             542 
    x75       c1                             154  c3                             532 
    x75       c0                             186 
    x76       Obj                            909  c5                             198 
    x76       c7                             897  c4                             938 
    x76       c2                             460  c6                             680 
    x76       c0                             657  c8                             986 
    x76       c9                              28  c3                             765 
    x76       c1                             552 
    x77       c1                             567  c5                             525 
    x77       c8                             400  c2                             214 
    x77       Obj                            884  c4                             397 
    x77       c3                             962  c9                             487 
    x77       c7                             572  c0                             717 
    x77       c6                             626 
    x78       c3                             851  c4                             660 
    x78       c8                             747  Obj                            639 
    x78       c6                              44  c2                               1 
    x78       c0                             254  c7                             863 
    x78       c9                             111  c1                             820 
    x78       c5                             435 
    x79       c5                             677  c9                             424 
    x79       c4                             397  c1                             243 
    x79       c8                              47  c0                             533 
    x79       c2                             389  c3                             323 
    x79       c6                              78  Obj                            811 
    x79       c7                             864 
    x80       c7                             522  c2                             972 
    x80       c6                             179  Obj                           1000 
    x80       c5                             301  c9                             112 
    x80       c8                             767  c3                             963 
    x80       c0                             733  c4                             567 
    x80       c1                             537 
    x81       c3                             904  c8                              63 
    x81       c6                             116  c4                             183 
    x81       c0                             144  c9                              17 
    x81       Obj                            267  c1                             358 
    x81       c5                             329  c7                             317 
    x81       c2                              31 
    x82       c2                             426  c1                             260 
    x82       c0                             208  c8                             331 
    x82       c9                              95  c6                             950 
    x82       c3                             185  c7                             575 
    x82       c5                             775  c4                              96 
    x82       Obj                            632 
    x83       Obj                            937  c3                             507 
    x83       c8                             327  c5                             699 
    x83       c4                             592  c1                             706 
    x83       c2                             836  c7                             337 
    x83       c6                             866  c0                             928 
    x83       c9                             597 
    x84       c2                             986  c5                             892 
    x84       c4                             846  c7                             375 
    x84       c6                             900  Obj                            875 
    x84       c9                              87  c0                             919 
    x84       c1                             471  c8                             675 
    x84       c3                             762 
    x85       c0                             402  c5                             242 
    x85       c3                              40  c6                             669 
    x85       c7                             411  c8                             655 
    x85       Obj                            768  c9                               1 
    x85       c1                             237  c2                              20 
    x85       c4                             271 
    x86       c7                             692  Obj                            928 
    x86       c0                             536  c4                             943 
    x86       c1                             676  c3                             798 
    x86       c6                             182  c2                             941 
    x86       c8                             233  c9                             307 
    x86       c5                             620 
    x87       c0                             900  c7                             196 
    x87       c6                             376  Obj                            378 
    x87       c2                             652  c9                             203 
    x87       c5                              36  c1                             281 
    x87       c4                             201  c3                             108 
    x87       c8                             724 
    x88       c2                             222  c1                             145 
    x88       c4                             558  c6                             725 
    x88       c5                             881  Obj                            948 
    x88       c3                             628  c8                             633 
    x88       c9                             806  c0                             893 
    x88       c7                             302 
    x89       c1                             273  c9                             571 
    x89       c2                             914  c7                              16 
    x89       c0                             814  c8                             743 
    x89       Obj                            628  c5                               3 
    x89       c6                             635  c4                             926 
    x89       c3                             547 
    x90       c7                             251  c3                             123 
    x90       Obj                            530  c6                             466 
    x90       c0                             121  c8                             494 
    x90       c1                             567  c2                              93 
    x90       c4                             961  c9                             334 
    x90       c5                             192 
    x91       c5                             806  c6                             398 
    x91       c0                             601  c4                             357 
    x91       c7                             608  c2                             634 
    x91       c9                             441  c8                              36 
    x91       Obj                            676  c1                              87 
    x91       c3                             127 
    x92       c0                             262  c4                             216 
    x92       c1                             692  c9                             489 
    x92       c8                             382  c6                             770 
    x92       c3                             231  c5                             761 
    x92       Obj                            662  c2                             646 
    x92       c7                             751 
    x93       c0                             207  c8                              25 
    x93       Obj                            490  c9                             374 
    x93       c4                             110  c1                             787 
    x93       c5                             543  c3                               8 
    x93       c6                             611  c7                             295 
    x93       c2                             343 
    x94       c0                             735  c9                             695 
    x94       Obj                           1006  c4                             419 
    x94       c8                             187  c1                             878 
    x94       c6                             285  c7                             180 
    x94       c3                             781  c5                             806 
    x94       c2                             923 
    x95       Obj                            949  c1                             857 
    x95       c3                             862  c9                             929 
    x95       c4                             627  c0                             125 
    x95       c6                             688  c5                             118 
    x95       c8                             883  c2                             613 
    x95       c7                             904 
    x96       c8                             483  c3                             810 
    x96       c9                             411  c5                             543 
    x96       c4                             267  c0                             755 
    x96       c6                             921  c7                              13 
    x96       c2                             808  Obj                            822 
    x96       c1                             821 
    x97       c1                              89  c3                             638 
    x97       c4                             111  c9                             438 
    x97       c6                             640  c7                             695 
    x97       c0                             581  Obj                            694 
    x97       c2                             264  c8                             923 
    x97       c5                             810 
    x98       c6                             853  Obj                           1013 
    x98       c2                             160  c9                             416 
    x98       c5                             272  c0                             464 
    x98       c7                             726  c4                             742 
    x98       c8                             860  c1                             983 
    x98       c3                             248 
    x99       c3                             198  c4                             211 
    x99       c5                             461  c2                             254 
    x99       c8                             249  Obj                            600 
    x99       c0                             674  c7                             615 
    x99       c6                             856  c1                             388 
    x99       c9                             805 
    INTEND    'MARKER'                            'INTEND'                           
RHS
    RHS       c0                           13640  c1                           12048 
    RHS       c2                           12574  c3                           13915 
    RHS       c4                           13232  c5                           12190 
    RHS       c6                           12242  c7                           12394 
    RHS       c8                           12258  c9                           10960 
BOUNDS
 BV Bound     x0                                 
 BV Bound     x1                                 
 BV Bound     x2                                 
 BV Bound     x3                                 
 BV Bound     x4                                 
 BV Bound     x5                                 
 BV Bound     x6                                 
 BV Bound     x7                                 
 BV Bound     x8                                 
 BV Bound     x9                                 
 BV Bound     x10                                
 BV Bound     x11                                
 BV Bound     x12                                
 BV Bound     x13                                
 BV Bound     x14                                
 BV Bound     x15                                
 BV Bound     x16                                
 BV Bound     x17                                
 BV Bound     x18                                
 BV Bound     x19                                
 BV Bound     x20                                
 BV Bound     x21                                
 BV Bound     x22                                
 BV Bound     x23                                
 BV Bound     x24                                
 BV Bound     x25                                
 BV Bound     x26                                
 BV Bound     x27                                
 BV Bound     x28                                
 BV Bound     x29                                
 BV Bound     x30                                
 BV Bound     x31                                
 BV Bound     x32                                
 BV Bound     x33                                
 BV Bound     x34                                
 BV Bound     x35                                
 BV Bound     x36                                
 BV Bound     x37                                
 BV Bound     x38                                
 BV Bound     x39                                
 BV Bound     x40                                
 BV Bound     x41                                
 BV Bound     x42                                
 BV Bound     x43                                
 BV Bound     x44                                
 BV Bound     x45                                
 BV Bound     x46                                
 BV Bound     x47                                
 BV Bound     x48                                
 BV Bound     x49                                
 BV Bound     x50                                
 BV Bound     x51                                
 BV Bound     x52                                
 BV Bound     x53                                
 BV Bound     x54                                
 BV Bound     x55                                
 BV Bound     x56                                
 BV Bound     x57                                
 BV Bound     x58                                
 BV Bound     x59                                
 BV Bound     x60                                
 BV Bound     x61                                
 BV Bound     x62                                
 BV Bound     x63                                
 BV Bound     x64                                
 BV Bound     x65                                
 BV Bound     x66                                
 BV Bound     x67                                
 BV Bound     x68                                
 BV Bound     x69                                
 BV Bound     x70                                
 BV Bound     x71                                
 BV Bound     x72                                
 BV Bound     x73                                
 BV Bound     x74                                
 BV Bound     x75                                
 BV Bound     x76                                
 BV Bound     x77                                
 BV Bound     x78                                
 BV Bound     x79                                
 BV Bound     x80                                
 BV Bound     x81                                
 BV Bound     x82                                
 BV Bound     x83                                
 BV Bound     x84                                
 BV Bound     x85                                
 BV Bound     x86                                
 BV Bound     x87                                
 BV Bound     x88                                
 BV Bound     x89                                
 BV Bound     x90                                
 BV Bound     x91                                
 BV Bound     x92                                
 BV Bound     x93                                
 BV Bound     x94                                
 BV Bound     x95                                
 BV Bound     x96                                
 BV Bound     x97                                
 BV Bound     x98                                
 BV Bound     x99                                
ENDATA