* SCIP STATISTICS
*   Problem name     : mknap_8
*   Variables        : 100 (100 binary, 0 integer, 0 implicit integer, 0 continuous)
*   Constraints      : 10
NAME          mknap_8
OBJSENSE
  MAX
ROWS
 N  Obj 
 L  c0 
 L  c1 
 L  c2 
 L  c3 
 L  c4 
 L  c5 
 L  c6 
 L  c7 
 L  c8 
 L  c9 
COLUMNS
    INTSTART  'MARKER'                            'INTORG'                           
    x0        Obj                            486  c5                             382 
    x0        c4                             728  c6                             737 
    x0        c3                             355  c7                              19 
    x0        c2                             970  c8                             101 
    x0        c1                              71  c9                             600 
    x0        c0                             859 
    x1        Obj                            737  c5                             765 
    x1        c4                             904  c6                             245 
    x1        c3                             218  c7                             187 
    x1        c2                             845  c8                             243 
    x1        c1                             518  c9                              65 
    x1        c0                             750 
    x2        c9                             272  c5                             846 
    x2        Obj                            887  c3                             866 
    x2        c1                             452  c4                             531 
    x2        c0                              83  c8                             594 
    x2        c7                             193  c2                             964 
    x2        c6                             427 
    x3        c9                             433  c8                             230 
    x3        c2                             454  c1                             336 
    x3        c6                             923  c7                             444 
    x3        c3                             136  Obj                            556 
    x3        c4                             245  c0                             297 
    x3        c5                             101 
    x4        c4                             890  c3                             366 
    x4        c0                             690  c6                             479 
    x4        Obj                            775  c1                             329 
    x4        c7                             431  c2                             655 
    x4        c5                             381  c8                             116 
    x4        c9                             641 
    x5        c8                             100  c3                             223 
    x5        c1                             798  c5                             731 
    x5        c6                              46  c7                             146 
    x5        Obj                            314  c4                             306 
    x5        c0                              10  c9                             242 
    x5        c2                             514 
    x6        Obj                            592  c3                             584 
    x6        c8                             826  c4                             192 
    x6        c0                             347  c7                             296 
    x6        c5                             518  c9                             209 
    x6        c1                             830  c2                              89 
    x6        c6                             841 
    x7        c9                             741  c5                             377 
    x7        c1                              17  c7                             938 
    x7        c2                             156  c4                              81 
    x7        Obj                            522  c8                             668 
    x7        c0                             466  c3                             546 
    x7        c6                             837 
    x8        c5                             618  c7                             164 
    x8        c2                             642  c4                             157 
    x8        c1                              13  c6                             779 
    x8        c0                             696  c8                             368 
    x8        Obj                            694  c3                             608 
    x8        c9                             104 
    x9        c9                              64  c4                             171 
    x9        c8                             650  c6                              42 
    x9        c0                             397  Obj                            388 
    x9        c1                             174  c3                             505 
    x9        c7                             245  c5                             905 
    x9        c2                             442 
    x10       c9                             966  c3                               9 
    x10       Obj                            702  c4                             589 
    x10       c8                             763  c6                             446 
    x10       c0                             695  c5                             703 
    x10       c7                             248  c2                             258 
    x10       c1                             578 
    x11       c1                             287  c8                             107 
    x11       c0                             171  c9                              94 
    x11       c2                             597  c7                             737 
    x11       c3                             665  c6                             943 
    x11       c4                             651  c5                              65 
    x11       Obj                            598 
    x12       Obj                            916  c5                             961 
    x12       c3                             609  c1                             403 
    x12       c7                             815  c9                              91 
    x12       c8                              24  c0                             319 
    x12       c6                             898  c2                             981 
    x12       c4                             484 
    x13       c5                             777  c8                             214 
    x13       c3                             134  c7                             264 
    x13       c9                             211  c0                              48 
    x13       c1                             657  c6                             238 
    x13       c2                             164  c4                             630 
    x13       Obj                            722 
    x14       Obj                            895  c4                             251 
    x14       c5                             590  c6                             410 
    x14       c7                             180  c1                             377 
    x14       c2                             875  c0                             821 
    x14       c3                             150  c9                             432 
    x14       c8                             969 
    x15       c9                             214  c1                             333 
    x15       c2                             814  c7                             538 
    x15       c6                             597  c8                             479 
    x15       Obj                            696  c3                             103 
    x15       c0                             352  c5                             142 
    x15       c4                              31 
    x16       c3                              45  Obj                            561 
    x16       c5                             228  c9                             545 
    x16       c1                             844  c4                             400 
    x16       c7                             435  c6                             181 
    x16       c0                             571  c8                             584 
    x16       c2                             888 
    x17       c7                             617  c3                             868 
    x17       c9                             461  Obj                            479 
    x17       c4                             209  c2                             122 
    x17       c1                             937  c5                             293 
    x17       c6                             260  c0                             828 
    x17       c8                              37 
    x18       c8                             771  c1                             629 
    x18       c5                             912  c6                             957 
    x18       c0                             109  c3                             382 
    x18       c9                             134  Obj                            964 
    x18       c7                             975  c2                             595 
    x18       c4                             687 
    x19       Obj                            650  c5                             875 
    x19       c8                             718  c0                             131 
    x19       c9                             653  c2                              72 
    x19       c6                             479  c3                             304 
    x19       c4                             174  c7                             878 
    x19       c1                              79 
    x20       c1                             684  c7                             955 
    x20       c3                             521  c4                             986 
    x20       Obj                            849  c9                             614 
    x20       c8                             709  c0                              19 
    x20       c5                              43  c2                             956 
    x20       c6                             385 
    x21       c9                             580  c1                             808 
    x21       c2                              50  c4                             948 
    x21       Obj                            541  c5                             750 
    x21       c0                             193  c6                             416 
    x21       c3                             288  c8                             127 
    x21       c7                             747 
    x22       c8                             287  Obj                            996 
    x22       c0                             840  c1                             499 
    x22       c9                             988  c2                             327 
    x22       c5                             773  c7                             524 
    x22       c4                             155  c3                             273 
    x22       c6                             359 
    x23       c8                             424  c6                             836 
    x23       c0                             141  Obj                            504 
    x23       c9                             239  c1                             403 
    x23       c2                             275  c5                             124 
    x23       c7                             220  c4                             248 
    x23       c3                             120 
    x24       c3                             693  c0                             522 
    x24       c6                             436  c9                               4 
    x24       Obj                            791  c1                              97 
    x24       c7                             146  c2                             123 
    x24       c4                             977  c5                             145 
    x24       c8                             224 
    x25       c9                             211  c0                             496 
    x25       c3                             289  c1                             162 
    x25       c7                             876  c8                             937 
    x25       Obj                            499  c6                             589 
    x25       c5                             149  c4                             246 
    x25       c2                             671 
    x26       Obj                            309  c5                             297 
    x26       c9                              97  c2                             301 
    x26       c0                             247  c3                              34 
    x26       c7                              40  c8                             813 
    x26       c4                             884  c1                              45 
    x26       c6                             131 
    x27       c5                             792  c0                             923 
    x27       c3                             758  Obj                            895 
    x27       c7                             960  c6                             808 
    x27       c1                             928  c8                             479 
    x27       c9                             275  c4                             873 
    x27       c2                             803 
    x28       c1                             544  c9                             557 
    x28       Obj                            482  c7                             191 
    x28       c6                             840  c2                             325 
    x28       c3                             167  c8                             459 
    x28       c0                             502  c4                             140 
    x28       c5                              98 
    x29       c8                             491  c9                             223 
    x29       c7                             745  c6                             909 
    x29       c0                             434  Obj                            862 
    x29       c4                             526  c3                             195 
    x29       c2                             653  c5                             674 
    x29       c1                             646 
    x30       c0                             227  c6                             849 
    x30       c3                             730  c7                             600 
    x30       c1                             601  Obj                            793 
    x30       c4                             621  c8                             738 
    x30       c9                             849  c5                             374 
    x30       c2                             173 
    x31       c7                             922  c4                             475 
    x31       c1                              24  c2                             573 
    x31       c0                             608  Obj                            860 
    x31       c6                             732  c8                             142 
    x31       c3                             333  c5                             472 
    x31       c9                              55 
    x32       c7                             705  c3                             553 
    x32       c4                             782  c6                              49 
    x32       c2                             868  c1                              82 
    x32       c5                             998  c9                             947 
    x32       c8                             541  c0                             726 
    x32       Obj                            886 
    x33       c2                             679  c0                             669 
    x33       c8                             233  c1                             696 
    x33       c3                             653  c9                             570 
    x33       Obj                            544  c4                             516 
    x33       c7                             709  c6                             290 
    x33       c5                             280 
    x34       c4                             990  c6                               8 
    x34       c9                             263  c0                             887 
    x34       c3                              36  c5                             899 
    x34       c7                             266  c2                              95 
    x34       Obj                            667  c1                             996 
    x34       c8                             651 
    x35       c4                             487  c5                             733 
    x35       c9                             484  c3                             276 
    x35       Obj                            539  c7                             580 
    x35       c8                             596  c2                             392 
    x35       c1                             148  c0                              93 
    x35       c6                              33 
    x36       c6                             702  c2                             954 
    x36       c1                             105  c9                             979 
    x36       c7                             822  c8                              85 
    x36       Obj                            719  c5                             247 
    x36       c4                             980  c3                             240 
    x36       c0                             779 
    x37       c4                             294  c9                             778 
    x37       c8                              26  c6                             463 
    x37       c2                             344  c1                             944 
    x37       Obj                            722  c5                             493 
    x37       c7                             875  c0                             626 
    x37       c3                             330 
    x38       c0                             655  Obj                            592 
    x38       c2                             900  c4                             172 
    x38       c1                             412  c6                              24 
    x38       c9                             409  c7                             493 
    x38       c8                             421  c5                             106 
    x38       c3                             292 
    x39       c8                             837  c6                             189 
    x39       Obj                            951  c0                             139 
    x39       c5                             483  c1                             379 
    x39       c7                             698  c2                             876 
    x39       c9                             885  c4                             618 
    x39       c3                             562 
    x40       c3                             908  c9                             245 
    x40       c7                             108  c1                             901 
    x40       c4                             232  c2                             455 
    x40       c6                             354  c0                             813 
    x40       c8                             671  c5                             402 
    x40       Obj                            602 
    x41       Obj                            882  c0                             944 
    x41       c8                              74  c7                             401 
    x41       c4                             978  c1                             505 
    x41       c6                             286  c5                             139 
    x41       c2                             731  c9                             118 
    x41       c3                              39 
    x42       c8                             630  c0                             528 
    x42       c9                             440  c5                              84 
    x42       c7                             199  Obj                            502 
    x42       c3                             150  c6                             825 
    x42       c2                             775  c1                             679 
    x42       c4                             543 
    x43       c1                              82  c8                             436 
    x43       c0                             597  c9                             166 
    x43       c6                             545  c3                             636 
    x43       c4                             921  Obj                           1003 
    x43       c5                             464  c2                             923 
    x43       c7                             502 
    x44       c7                             676  Obj                            626 
    x44       c8                             642  c1                             788 
    x44       c2                             516  c0                             106 
    x44       c9                             581  c3                             526 
    x44       c6                             295  c4                             676 
    x44       c5                             695 
    x45       c5                             840  Obj                            827 
    x45       c1                             737  c2                             459 
    x45       c0                             286  c7                             905 
    x45       c4                             671  c9                             462 
    x45       c8                             696  c3                             537 
    x45       c6                             736 
    x46       c8                             262  c3                             384 
    x46       c6                             405  c5                             741 
    x46       c7                             258  c1                             743 
    x46       c2                             272  c9                             622 
    x46       c0                             492  c4                             550 
    x46       Obj                            742 
    x47       c3                             506  c1                             466 
    x47       c2                             858  c0                             598 
    x47       c4                             725  c6                             856 
    x47       c9                             751  c8                             594 
    x47       c5                             298  Obj                            709 
    x47       c7                              82 
    x48       c8                             813  Obj                            737 
    x48       c6                             471  c4                             477 
    x48       c2                             254  c9                             494 
    x48       c7                             737  c0                             135 
    x48       c5                             384  c3                             853 
    x48       c1                             533 
    x49       c5                              85  c7                             638 
    x49       c3                              12  c0                             530 
    x49       c1                             442  c8                             687 
    x49       c9                             904  c4                             546 
    x49       c2                             362  Obj                            589 
    x49       c6                             598 
    x50       c3                              23  c8                             971 
    x50       c9                             654  c4                             451 
    x50       c2                             108  c7                             950 
    x50       c5                             576  c6                             110 
    x50       Obj                            689  c0                             452 
    x50       c1                             314 
    x51       c6                             232  c8                             101 
    x51       c2                             838  c7                             269 
    x51       c4                              92  c1                             485 
    x51       c3                             653  c0                             902 
    x51       c9                             341  c5                             635 
    x51       Obj                            594 
    x52       c3                             870  c8                             973 
    x52       c5                             307  c2                             948 
    x52       c7                             428  c6                             243 
    x52       c1                             851  c4                             333 
    x52       c0                             143  c9                             164 
    x52       Obj                            750 
    x53       c5                             256  c2                             667 
    x53       c6                             466  c0                             732 
    x53       c7                             635  c1                              45 
    x53       c4                              57  c3                              44 
    x53       Obj                            866  c9                             794 
    x53       c8                             700 
    x54       c1                               3  c8                             759 
    x54       c3                             578  c6                              47 
    x54       c5                             344  c0                             244 
    x54       c9                             514  Obj                            633 
    x54       c7                             372  c4                             974 
    x54       c2                             366 
    x55       c5                             109  c4                             398 
    x55       c9                             341  Obj                            763 
    x55       c6                             382  c0                             540 
    x55       c7                             370  c1                             262 
    x55       c2                             519  c8                             378 
    x55       c3                             272 
    x56       Obj                            559  c4                             502 
    x56       c3                             254  c5                             488 
    x56       c8                             440  c0                              51 
    x56       c2                             880  c9                             534 
    x56       c1                             666  c7                             900 
    x56       c6                             400 
    x57       c6                             940  c5                             482 
    x57       c9                             347  c1                             458 
    x57       c8                             940  Obj                            926 
    x57       c2                             446  c3                             276 
    x57       c7                             107  c4                             544 
    x57       c0                             114 
    x58       c8                             281  c9                             583 
    x58       c0                             309  c4                              74 
    x58       Obj                            563  c3                             433 
    x58       c2                              91  c1                             474 
    x58       c5                             828  c6                             587 
    x58       c7                             712 
    x59       c5                             717  c3                             833 
    x59       c7                             203  c6                             603 
    x59       c9                             511  c1                             187 
    x59       c4                             378  c2                             157 
    x59       c8                             841  c0                              98 
    x59       Obj                            671 
    x60       c6                             388  c1                             355 
    x60       c5                               9  c9                             605 
    x60       c8                             150  c0                             935 
    x60       c2                             253  c4                              23 
    x60       Obj                            651  c7                              64 
    x60       c3                             217 
    x61       c6                             165  c5                             168 
    x61       c2                             454  Obj                            907 
    x61       c9                             751  c8                              67 
    x61       c7                             392  c4                             775 
    x61       c3                             135  c1                             495 
    x61       c0                             690 
    x62       c2                             744  c6                             369 
    x62       c9                             520  c0                             205 
    x62       c5                             184  c8                              31 
    x62       c7                              92  c4                             130 
    x62       Obj                            630  c1                             372 
    x62       c3                             220 
    x63       Obj                            688  c4                             419 
    x63       c6                             169  c7                             624 
    x63       c2                             988  c8                             154 
    x63       c5                             594  c3                             910 
    x63       c9                             932  c0                             418 
    x63       c1                             580 
    x64       c2                             684  c7                             973 
    x64       c5                             700  c6                             315 
    x64       c9                             720  c8                             357 
    x64       c1                              48  c0                             681 
    x64       c3                             625  Obj                            735 
    x64       c4                             609 
    x65       c4                              56  c8                             428 
    x65       Obj                            704  c2                              27 
    x65       c3                             449  c6                             126 
    x65       c5                               2  c7                             476 
    x65       c1                              15  c9                             814 
    x65       c0                             337 
    x66       Obj                           1004  c2                             652 
    x66       c6                             154  c9                             798 
    x66       c3                             754  c1                             499 
    x66       c5                             850  c7                             572 
    x66       c0                             151  c4                             913 
    x66       c8                             894 
    x67       c8                             587  c3                             224 
    x67       c7                             991  c5                             147 
    x67       c2                              90  c9                             848 
    x67       Obj                            480  c1                             201 
    x67       c4                             343  c0                             580 
    x67       c6                             419 
    x68       c7                             390  Obj                            474 
    x68       c9                             659  c0                             656 
    x68       c1                             438  c2                             222 
    x68       c6                              90  c4                             862 
    x68       c5                              83  c8                             753 
    x68       c3                             390 
    x69       c7                             185  c3                             509 
    x69       c0                               6  c1                             461 
    x69       c4                             458  c8                             772 
    x69       c5                             286  c9                             372 
    x69       Obj                            729  c6                             246 
    x69       c2                             464 
    x70       c7                             406  c6                             184 
    x70       c3                             176  c5                             555 
    x70       c8                             671  c2                             765 
    x70       c9                             570  Obj                            523 
    x70       c4                             772  c0                             250 
    x70       c1                             819 
    x71       c4                             673  c8                             766 
    x71       c3                             592  c0                             237 
    x71       c1                             741  c7                             923 
    x71       c6                             271  Obj                            867 
    x71       c5                             161  c2                             226 
    x71       c9                             837 
    x72       c0                             320  c3                             280 
    x72       Obj                            701  c1                             965 
    x72       c8                             509  c7                             670 
    x72       c5                              46  c2                             848 
    x72       c6                             704  c4                             790 
    x72       c9                             411 
    x73       c7                             433  c2                              61 
    x73       Obj                            959  c9                             942 
    x73       c1                             492  c3                             765 
    x73       c5                             833  c8                              77 
    x73       c6                             150  c0                             774 
    x73       c4                             415 
    x74       c2                             180  c5                             642 
    x74       c7                             141  c6                             750 
    x74       c8                             330  c9                             376 
    x74       Obj                            833  c0                             586 
    x74       c3                             549  c4                             264 
    x74       c1                             490 
    x75       c6                             853  c7                             565 
    x75       c5                             833  c9                             669 
    x75       c8                             396  c2                             296 
    x75       Obj                            972  c4                             531 
    x75       c1                             884  c3                             876 
    x75       c0                             967 
    x76       Obj                            818  c5                             301 
    x76       c7                              63  c4                              72 
    x76       c2                             818  c6                             344 
    x76       c0                             927  c8                             580 
    x76       c9                             202  c3                             468 
    x76       c1                             553 
    x77       c1                             185  c5                             619 
    x77       c8                             979  c2                             331 
    x77       Obj                            665  c4                             246 
    x77       c3                             995  c9                             417 
    x77       c7                             932  c0                             525 
    x77       c6                             909 
    x78       c3                             127  c4                             682 
    x78       c8                             447  Obj                            866 
    x78       c6                             647  c2                             791 
    x78       c0                             289  c7                             346 
    x78       c9                             380  c1                             853 
    x78       c5                             344 
    x79       c5                             568  c9                             134 
    x79       c4                             645  c1                             149 
    x79       c8                             565  c0                             475 
    x79       c2                             475  c3                             416 
    x79       c6                             964  Obj                            589 
    x79       c7                             179 
    x80       c7                             840  c2                             455 
    x80       c6                             240  Obj                            698 
    x80       c5                             407  c9                             355 
    x80       c8                              62  c3                             322 
    x80       c0                             375  c4                              19 
    x80       c1                             334 
    x81       c3                             739  c8                             569 
    x81       c6                             562  c4                              55 
    x81       c0                             289  c9                             787 
    x81       Obj                            501  c1                             955 
    x81       c5                             328  c7                               5 
    x81       c2                             441 
    x82       c2                             874  c1                             673 
    x82       c0                             699  c8                             529 
    x82       c9                             737  c6                             984 
    x82       c3                             841  c7                             169 
    x82       c5                             662  c4                             179 
    x82       Obj                            844 
    x83       Obj                            857  c3                              36 
    x83       c8                             115  c5                             580 
    x83       c4                             932  c1                             783 
    x83       c2                             913  c7                             955 
    x83       c6                             697  c0                             823 
    x83       c9                             811 
    x84       c2                             706  c5                              33 
    x84       c4                             107  c7                              72 
    x84       c6                             726  Obj                            723 
    x84       c9                             844  c0                              65 
    x84       c1                             157  c8                             580 
    x84       c3                             539 
    x85       c0                             151  c5                             917 
    x85       c3                             788  c6                             612 
    x85       c7                             340  c8                              41 
    x85       Obj                            504  c9                             550 
    x85       c1                             264  c2                             424 
    x85       c4                             833 
    x86       c7                             980  Obj                            834 
    x86       c0                             332  c4                             616 
    x86       c1                             880  c3                             895 
    x86       c6                              21  c2                             381 
    x86       c8                             585  c9                             661 
    x86       c5                             726 
    x87       c0                             471  c7                             565 
    x87       c6                             447  Obj                            754 
    x87       c2                             390  c9                             150 
    x87       c5                             366  c1                             165 
    x87       c4                             620  c3                             322 
    x87       c8                              17 
    x88       c2                             844  c1                             752 
    x88       c4                             970  c6                             951 
    x88       c5                             695  Obj                            961 
    x88       c3                             451  c8                             714 
    x88       c9                             910  c0                              54 
    x88       c7                             309 
    x89       c1                             895  c9                             648 
    x89       c2                             385  c7                             177 
    x89       c0                             450  c8                              61 
    x89       Obj                            427  c5                             408 
    x89       c6                              51  c4                             422 
    x89       c3                             426 
    x90       c7                             218  c3                             743 
    x90       Obj                           1052  c6                             740 
    x90       c0                             401  c8                             964 
    x90       c1                             368  c2                              12 
    x90       c4                             931  c9                             902 
    x90       c5                             443 
    x91       c5                             169  c6                             797 
    x91       c0                             452  c4                             115 
    x91       c7                             819  c2                             322 
    x91       c9                             447  c8                             926 
    x91       Obj                            906  c1                             985 
    x91       c3                             652 
    x92       c0                             750  c4                             891 
    x92       c1                             223  c9                              54 
    x92       c8                             526  c6                             783 
    x92       c3                             722  c5                             956 
    x92       Obj                            851  c2                             367 
    x92       c7                             419 
    x93       c0                              63  c8                             240 
    x93       Obj                            713  c9                             804 
    x93       c4                             553  c1                             509 
    x93       c5                             494  c3                             133 
    x93       c6                             309  c7                             325 
    x93       c2                             818 
    x94       c0                              57  c9                             531 
    x94       Obj                            859  c4                             139 
    x94       c8                             883  c1                             699 
    x94       c6                             659  c7                             462 
    x94       c3                             607  c5                             465 
    x94       c2                             769 
    x95       Obj                            587  c1                             491 
    x95       c3                              79  c9                               3 
    x95       c4                             682  c0                             928 
    x95       c6                             682  c5                              98 
    x95       c8                              57  c2                             837 
    x95       c7                               2 
    x96       c8                             277  c3                             682 
    x96       c9                              81  c5                             858 
    x96       c4                             415  c0                             340 
    x96       c6                             216  c7                             413 
    x96       c2                             962  Obj                            841 
    x96       c1                             473 
    x97       c1                             576  c3                             991 
    x97       c4                              93  c9                             262 
    x97       c6                             776  c7                             249 
    x97       c0                             297  Obj                            604 
    x97       c2                             810  c8                             811 
    x97       c5                             100 
    x98       c6                             146  Obj                            671 
    x98       c2                             106  c9                             978 
    x98       c5                             196  c0                               2 
    x98       c7                              87  c4                             924 
    x98       c8                             678  c1                             920 
    x98       c3                             381 
    x99       c3                             602  c4                             501 
    x99       c5                             893  c2                             907 
    x99       c8                             900  Obj                            912 
    x99       c0                             901  c7                             501 
    x99       c6                             601  c1                             694 
    x99       c9                             125 
    INTEND    'MARKER'                            'INTEND'                           
RHS
    RHS       c0                           11222  c1                           12219 
    RHS       c2                           13288  c3                           11109 
    RHS       c4                           12507  c5                           11673 
    RHS       c6                           12103  c7                           11900 
    RHS       c8                           12180  c9                           12336 
BOUNDS
 BV Bound     x0                                 
 BV Bound     x1                                 
 BV Bound     x2                                 
 BV Bound     x3                                 
 BV Bound     x4                                 
 BV Bound     x5                                 
 BV Bound     x6                                 
 BV Bound     x7                                 
 BV Bound     x8                                 
 BV Bound     x9                                 
 BV Bound     x10                                
 BV Bound     x11                                
 BV Bound     x12                                
 BV Bound     x13                                
 BV Bound     x14                                
 BV Bound     x15                                
 BV Bound     x16                                
 BV Bound     x17                                
 BV Bound     x18                                
 BV Bound     x19                                
 BV Bound     x20                                
 BV Bound     x21                                
 BV Bound     x22                                
 BV Bound     x23                                
 BV Bound     x24                                
 BV Bound     x25                                
 BV Bound     x26                                
 BV Bound     x27                                
 BV Bound     x28                                
 BV Bound     x29                                
 BV Bound     x30                                
 BV Bound     x31                                
 BV Bound     x32                                
 BV Bound     x33                                
 BV Bound     x34                                
 BV Bound     x35                                
 BV Bound     x36                                
 BV Bound     x37                                
 BV Bound     x38                                
 BV Bound     x39                                
 BV Bound     x40                                
 BV Bound     x41                                
 BV Bound     x42                                
 BV Bound     x43                                
 BV Bound     x44                                
 BV Bound     x45                                
 BV Bound     x46                                
 BV Bound     x47                                
 BV Bound     x48                                
 BV Bound     x49                                
 BV Bound     x50                                
 BV Bound     x51                                
 BV Bound     x52                                
 BV Bound     x53                                
 BV Bound     x54                                
 BV Bound     x55                                
 BV Bound     x56                                
 BV Bound     x57                                
 BV Bound     x58                                
 BV Bound     x59                                
 BV Bound     x60                                
 BV Bound     x61                                
 BV Bound     x62                                
 BV Bound     x63                                
 BV Bound     x64                                
 BV Bound     x65                                
 BV Bound     x66                                
 BV Bound     x67                                
 BV Bound     x68                                
 BV Bound     x69                                
 BV Bound     x70                                
 BV Bound     x71                                
 BV Bound     x72                                
 BV Bound     x73                                
 BV Bound     x74                                
 BV Bound     x75                                
 BV Bound     x76                                
 BV Bound     x77                                
 BV Bound     x78                                
 BV Bound     x79                                
 BV Bound     x80                                
 BV Bound     x81                                
 BV Bound     x82                                
 BV Bound     x83                                
 BV Bound     x84                                
 BV Bound     x85                                
 BV Bound     x86                                
 BV Bound     x87                                
 BV Bound     x88                                
 BV Bound     x89                                
 BV Bound     x90                                
 BV Bound     x91                                
 BV Bound     x92                                
 BV Bound     x93                                
 BV Bound     x94                                
 BV Bound     x95                                
 BV Bound     x96                                
 BV Bound     x97                                
 BV Bound     x98                                
 BV Bound     x99                                
ENDATA