* SCIP STATISTICS
*   Problem name     : mknap_12
*   Variables        : 100 (100 binary, 0 integer, 0 implicit integer, 0 continuous)
*   Constraints      : 10
NAME          mknap_12
OBJSENSE
  MAX
ROWS
 N  Obj 
 L  c0 
 L  c1 
 L  c2 
 L  c3 
 L  c4 
 L  c5 
 L  c6 
 L  c7 
 L  c8 
 L  c9 
COLUMNS
    INTSTART  'MARKER'                            'INTORG'                           
    x0        Obj                            853  c5                             440 
    x0        c4                              64  c6                             864 
    x0        c3                              53  c7                             204 
    x0        c2                             704  c8                             647 
    x0        c1                             538  c9                             273 
    x0        c0                             131 
    x1        Obj                            558  c5                             502 
    x1        c4                             141  c6                             195 
    x1        c3                              26  c7                             503 
    x1        c2                             776  c8                             682 
    x1        c1                             320  c9                             245 
    x1        c0                             374 
    x2        c9                             372  c5                             757 
    x2        Obj                            747  c3                             302 
    x2        c1                             879  c4                             216 
    x2        c0                             804  c8                              20 
    x2        c7                              93  c2                             448 
    x2        c6                              79 
    x3        c9                             468  c8                             437 
    x3        c2                             848  c1                             160 
    x3        c6                             231  c7                             261 
    x3        c3                             219  Obj                            426 
    x3        c4                             455  c0                              27 
    x3        c5                             152 
    x4        c4                             536  c3                             212 
    x4        c0                             719  c6                              82 
    x4        Obj                            537  c1                             488 
    x4        c7                             905  c2                             544 
    x4        c5                             223  c8                             275 
    x4        c9                             366 
    x5        c8                             190  c3                             629 
    x5        c1                              88  c5                             491 
    x5        c6                             624  c7                             124 
    x5        Obj                            510  c4                             391 
    x5        c0                              55  c9                               5 
    x5        c2                             621 
    x6        Obj                           1026  c3                             255 
    x6        c8                             669  c4                             387 
    x6        c0                              32  c7                             517 
    x6        c5                             881  c9                             479 
    x6        c1                             319  c2                             916 
    x6        c6                             911 
    x7        c9                             883  c5                              22 
    x7        c1                             857  c7                             339 
    x7        c2                             446  c4                             180 
    x7        Obj                            687  c8                             266 
    x7        c0                             361  c3                             636 
    x7        c6                             311 
    x8        c5                             394  c7                             798 
    x8        c2                             881  c4                             757 
    x8        c1                             602  c6                             480 
    x8        c0                             636  c8                             710 
    x8        Obj                            715  c3                             389 
    x8        c9                              43 
    x9        c9                             218  c4                               9 
    x9        c8                             820  c6                              82 
    x9        c0                             475  Obj                            788 
    x9        c1                             482  c3                             760 
    x9        c7                             883  c5                             734 
    x9        c2                             508 
    x10       c9                             623  c3                             637 
    x10       Obj                            609  c4                              42 
    x10       c8                             742  c6                             684 
    x10       c0                             944  c5                             266 
    x10       c7                             125  c2                             782 
    x10       c1                             328 
    x11       c1                             157  c8                             169 
    x11       c0                             638  c9                             972 
    x11       c2                             603  c7                             389 
    x11       c3                             745  c6                             190 
    x11       c4                             700  c5                             400 
    x11       Obj                            750 
    x12       Obj                            714  c5                             925 
    x12       c3                             668  c1                             497 
    x12       c7                               9  c9                             840 
    x12       c8                             583  c0                             890 
    x12       c6                             761  c2                             679 
    x12       c4                             501 
    x13       c5                             700  c8                              96 
    x13       c3                             461  c7                             478 
    x13       c9                             811  c0                              24 
    x13       c1                             868  c6                             939 
    x13       c2                             127  c4                             497 
    x13       Obj                            627 
    x14       Obj                            611  c4                             272 
    x14       c5                             968  c6                             710 
    x14       c7                             776  c1                             991 
    x14       c2                             108  c0                             971 
    x14       c3                             827  c9                             117 
    x14       c8                             286 
    x15       c9                             462  c1                             995 
    x15       c2                             934  c7                             481 
    x15       c6                             228  c8                             520 
    x15       Obj                            868  c3                             250 
    x15       c0                             149  c5                             359 
    x15       c4                             480 
    x16       c3                             986  Obj                            813 
    x16       c5                             773  c9                             188 
    x16       c1                             934  c4                             704 
    x16       c7                             929  c6                             424 
    x16       c0                             249  c8                             555 
    x16       c2                             762 
    x17       c7                             519  c3                             592 
    x17       c9                             933  Obj                            961 
    x17       c4                             754  c2                             959 
    x17       c1                             262  c5                             293 
    x17       c6                             297  c0                             659 
    x17       c8                             165 
    x18       c8                             187  c1                             198 
    x18       c5                             582  c6                             366 
    x18       c0                             722  c3                             304 
    x18       c9                             594  Obj                            782 
    x18       c7                             499  c2                             147 
    x18       c4                             929 
    x19       Obj                            668  c5                             231 
    x19       c8                             382  c0                             660 
    x19       c9                             999  c2                              95 
    x19       c6                             126  c3                             862 
    x19       c4                             117  c7                             599 
    x19       c1                             196 
    x20       c1                             616  c7                             991 
    x20       c3                             281  c4                             130 
    x20       Obj                            864  c9                             474 
    x20       c8                             512  c0                             745 
    x20       c5                             347  c2                             587 
    x20       c6                             978 
    x21       c9                             276  c1                             246 
    x21       c2                              21  c4                             362 
    x21       Obj                            607  c5                             462 
    x21       c0                             483  c6                             199 
    x21       c3                             724  c8                             112 
    x21       c7                             856 
    x22       c8                             428  Obj                            851 
    x22       c0                             805  c1                             794 
    x22       c9                               2  c2                             234 
    x22       c5                             639  c7                             497 
    x22       c4                             935  c3                             471 
    x22       c6                             582 
    x23       c8                             694  c6                              32 
    x23       c0                             338  Obj                            512 
    x23       c9                             215  c1                             403 
    x23       c2                             450  c5                             846 
    x23       c7                             296  c4                             743 
    x23       c3                             552 
    x24       c3                             815  c0                             181 
    x24       c6                             422  c9                             353 
    x24       Obj                            542  c1                             493 
    x24       c7                             313  c2                             959 
    x24       c4                              82  c5                             313 
    x24       c8                             496 
    x25       c9                             864  c0                             772 
    x25       c3                             883  c1                              30 
    x25       c7                             570  c8                             299 
    x25       Obj                            800  c6                             586 
    x25       c5                             167  c4                              94 
    x25       c2                             721 
    x26       Obj                            745  c5                             120 
    x26       c9                             286  c2                             682 
    x26       c0                             904  c3                             457 
    x26       c7                             457  c8                             418 
    x26       c4                             371  c1                             966 
    x26       c6                              89 
    x27       c5                             236  c0                             783 
    x27       c3                             700  Obj                            521 
    x27       c7                             407  c6                             459 
    x27       c1                             509  c8                             288 
    x27       c9                             658  c4                             361 
    x27       c2                             425 
    x28       c1                             883  c9                             810 
    x28       Obj                            979  c7                             653 
    x28       c6                             574  c2                              37 
    x28       c3                             164  c8                             997 
    x28       c0                             891  c4                             743 
    x28       c5                             654 
    x29       c8                             626  c9                             643 
    x29       c7                             216  c6                             924 
    x29       c0                             421  Obj                            789 
    x29       c4                             473  c3                             247 
    x29       c2                             910  c5                             692 
    x29       c1                             795 
    x30       c0                             133  c6                             235 
    x30       c3                             754  c7                             873 
    x30       c1                             762  Obj                            806 
    x30       c4                             655  c8                             933 
    x30       c9                             763  c5                             651 
    x30       c2                             634 
    x31       c7                             768  c4                             986 
    x31       c1                               7  c2                             629 
    x31       c0                             126  Obj                            781 
    x31       c6                             735  c8                              11 
    x31       c3                             136  c5                             104 
    x31       c9                             660 
    x32       c7                             621  c3                             764 
    x32       c4                             871  c6                             674 
    x32       c2                             506  c1                             156 
    x32       c5                             664  c9                              95 
    x32       c8                             673  c0                             268 
    x32       Obj                            982 
    x33       c2                             610  c0                             857 
    x33       c8                             767  c1                             748 
    x33       c3                             483  c9                             579 
    x33       Obj                           1048  c4                             446 
    x33       c7                             906  c6                             387 
    x33       c5                             644 
    x34       c4                             517  c6                             775 
    x34       c9                             860  c0                             792 
    x34       c3                             301  c5                             504 
    x34       c7                             742  c2                             556 
    x34       Obj                            950  c1                             147 
    x34       c8                             744 
    x35       c4                             902  c5                             336 
    x35       c9                             409  c3                             650 
    x35       Obj                            643  c7                             866 
    x35       c8                             322  c2                             610 
    x35       c1                             418  c0                             243 
    x35       c6                             671 
    x36       c6                              31  c2                             791 
    x36       c1                              91  c9                             944 
    x36       c7                             414  c8                             179 
    x36       Obj                            542  c5                             590 
    x36       c4                             711  c3                             562 
    x36       c0                             756 
    x37       c4                             451  c9                             116 
    x37       c8                             654  c6                             798 
    x37       c2                             583  c1                              39 
    x37       Obj                            690  c5                             643 
    x37       c7                             904  c0                             485 
    x37       c3                             289 
    x38       c0                             245  Obj                            373 
    x38       c2                             897  c4                              42 
    x38       c1                             730  c6                               2 
    x38       c9                             384  c7                             187 
    x38       c8                             156  c5                             644 
    x38       c3                             137 
    x39       c8                             481  c6                             640 
    x39       Obj                            813  c0                             315 
    x39       c5                             758  c1                             431 
    x39       c7                             206  c2                             189 
    x39       c9                             236  c4                             458 
    x39       c3                             806 
    x40       c3                             995  c9                             637 
    x40       c7                             184  c1                             465 
    x40       c4                              42  c2                             983 
    x40       c6                             257  c0                             440 
    x40       c8                             193  c5                              27 
    x40       Obj                            507 
    x41       Obj                            898  c0                              94 
    x41       c8                             888  c7                             557 
    x41       c4                             450  c1                             707 
    x41       c6                             253  c5                              24 
    x41       c2                              59  c9                             563 
    x41       c3                             618 
    x42       c8                             222  c0                             570 
    x42       c9                             371  c5                             727 
    x42       c7                             125  Obj                            738 
    x42       c3                             121  c6                             138 
    x42       c2                             837  c1                              12 
    x42       c4                             184 
    x43       c1                             690  c8                             165 
    x43       c0                             992  c9                             723 
    x43       c6                             663  c3                             780 
    x43       c4                             533  Obj                           1029 
    x43       c5                              36  c2                             974 
    x43       c7                             260 
    x44       c7                             462  Obj                            567 
    x44       c8                             848  c1                             302 
    x44       c2                              19  c0                             114 
    x44       c9                             818  c3                             974 
    x44       c6                             622  c4                             563 
    x44       c5                              34 
    x45       c5                             110  Obj                            497 
    x45       c1                             997  c2                             735 
    x45       c0                              40  c7                             527 
    x45       c4                             550  c9                              19 
    x45       c8                             745  c3                             438 
    x45       c6                             206 
    x46       c8                               8  c3                             444 
    x46       c6                             365  c5                             831 
    x46       c7                             327  c1                             363 
    x46       c2                             275  c9                             773 
    x46       c0                             780  c4                             431 
    x46       Obj                            539 
    x47       c3                             171  c1                               9 
    x47       c2                             966  c0                             834 
    x47       c4                             654  c6                             485 
    x47       c9                             309  c8                             487 
    x47       c5                             326  Obj                           1017 
    x47       c7                             947 
    x48       c8                             420  Obj                            976 
    x48       c6                             886  c4                             648 
    x48       c2                             634  c9                             830 
    x48       c7                             739  c0                             918 
    x48       c5                             925  c3                             813 
    x48       c1                             208 
    x49       c5                             378  c7                             239 
    x49       c3                             362  c0                             279 
    x49       c1                             107  c8                             824 
    x49       c9                             640  c4                             474 
    x49       c2                             641  Obj                            635 
    x49       c6                             271 
    x50       c3                             193  c8                             376 
    x50       c9                             709  c4                             841 
    x50       c2                             119  c7                             667 
    x50       c5                             974  c6                             964 
    x50       Obj                            858  c0                              35 
    x50       c1                              73 
    x51       c6                             147  c8                             983 
    x51       c2                             896  c7                             765 
    x51       c4                             730  c1                             649 
    x51       c3                             687  c0                             789 
    x51       c9                             651  c5                              17 
    x51       Obj                            732 
    x52       c3                             308  c8                             649 
    x52       c5                             835  c2                             873 
    x52       c7                             336  c6                             564 
    x52       c1                             877  c4                             748 
    x52       c0                             442  c9                             634 
    x52       Obj                            853 
    x53       c5                             297  c2                             762 
    x53       c6                             135  c0                             430 
    x53       c7                             117  c1                             561 
    x53       c4                             793  c3                             979 
    x53       Obj                            694  c9                             860 
    x53       c8                             625 
    x54       c1                              17  c8                             890 
    x54       c3                             160  c6                             836 
    x54       c5                             579  c0                             812 
    x54       c9                             619  Obj                            650 
    x54       c7                             659  c4                              79 
    x54       c2                             285 
    x55       c5                             239  c4                              82 
    x55       c9                             839  Obj                            904 
    x55       c6                             493  c0                             212 
    x55       c7                             979  c1                             604 
    x55       c2                             919  c8                             360 
    x55       c3                             460 
    x56       Obj                            745  c4                             819 
    x56       c3                             436  c5                             268 
    x56       c8                             925  c0                             560 
    x56       c2                              62  c9                             794 
    x56       c1                              65  c7                             632 
    x56       c6                             814 
    x57       c6                             290  c5                             231 
    x57       c9                             676  c1                             375 
    x57       c8                             804  Obj                            853 
    x57       c2                             191  c3                             795 
    x57       c7                             921  c4                             645 
    x57       c0                              32 
    x58       c8                             598  c9                             136 
    x58       c0                             362  c4                             270 
    x58       Obj                            635  c3                            1000 
    x58       c2                             892  c1                              11 
    x58       c5                             964  c6                             216 
    x58       c7                             739 
    x59       c5                             736  c3                             496 
    x59       c7                             246  c6                              48 
    x59       c9                             224  c1                             493 
    x59       c4                             743  c2                             539 
    x59       c8                             552  c0                             937 
    x59       Obj                            825 
    x60       c6                             356  c1                             261 
    x60       c5                             405  c9                             789 
    x60       c8                             939  c0                             627 
    x60       c2                             556  c4                              18 
    x60       Obj                            818  c7                              48 
    x60       c3                             886 
    x61       c6                             520  c5                             367 
    x61       c2                             976  Obj                            952 
    x61       c9                             762  c8                             683 
    x61       c7                             193  c4                             184 
    x61       c3                             827  c1                             615 
    x61       c0                             537 
    x62       c2                             625  c6                             977 
    x62       c9                             534  c0                             939 
    x62       c5                             287  c8                             169 
    x62       c7                             111  c4                             297 
    x62       Obj                            908  c1                             253 
    x62       c3                             708 
    x63       Obj                            779  c4                             381 
    x63       c6                             251  c7                              80 
    x63       c2                             898  c8                             772 
    x63       c5                             455  c3                             849 
    x63       c9                              48  c0                             145 
    x63       c1                             735 
    x64       c2                             157  c7                             606 
    x64       c5                              85  c6                             938 
    x64       c9                             308  c8                             424 
    x64       c1                              61  c0                             562 
    x64       c3                             136  Obj                            762 
    x64       c4                             502 
    x65       c4                              76  c8                              93 
    x65       Obj                            583  c2                             451 
    x65       c3                             666  c6                             613 
    x65       c5                             198  c7                              78 
    x65       c1                             712  c9                             817 
    x65       c0                             388 
    x66       Obj                            415  c2                             750 
    x66       c6                             352  c9                              39 
    x66       c3                             349  c1                             339 
    x66       c5                             746  c7                             180 
    x66       c0                             644  c4                             222 
    x66       c8                             284 
    x67       c8                             845  c3                             212 
    x67       c7                             966  c5                             682 
    x67       c2                             496  c9                             899 
    x67       Obj                           1007  c1                             592 
    x67       c4                             367  c0                              25 
    x67       c6                             936 
    x68       c7                               8  Obj                            487 
    x68       c9                             332  c0                             895 
    x68       c1                             824  c2                             396 
    x68       c6                             501  c4                               2 
    x68       c5                             140  c8                             803 
    x68       c3                             801 
    x69       c7                             501  c3                             777 
    x69       c0                             931  c1                             596 
    x69       c4                             747  c8                             654 
    x69       c5                             582  c9                             178 
    x69       Obj                            567  c6                             102 
    x69       c2                             365 
    x70       c7                              87  c6                             857 
    x70       c3                              22  c5                             928 
    x70       c8                             295  c2                             359 
    x70       c9                              23  Obj                            472 
    x70       c4                             992  c0                              21 
    x70       c1                             594 
    x71       c4                             200  c8                              28 
    x71       c3                             233  c0                             171 
    x71       c1                             362  c7                             623 
    x71       c6                             567  Obj                            657 
    x71       c5                             911  c2                             302 
    x71       c9                             736 
    x72       c0                             151  c3                             516 
    x72       Obj                            627  c1                             798 
    x72       c8                             622  c7                             194 
    x72       c5                              14  c2                             837 
    x72       c6                              47  c4                             733 
    x72       c9                             563 
    x73       c7                             142  c2                             533 
    x73       Obj                            633  c9                             994 
    x73       c1                              57  c3                             743 
    x73       c5                             243  c8                             403 
    x73       c6                             872  c0                             744 
    x73       c4                              21 
    x74       c2                             568  c5                             617 
    x74       c7                             423  c6                              80 
    x74       c8                             580  c9                              40 
    x74       Obj                            690  c0                             858 
    x74       c3                             922  c4                              24 
    x74       c1                             368 
    x75       c6                             534  c7                             497 
    x75       c5                             926  c9                               5 
    x75       c8                             358  c2                             476 
    x75       Obj                            494  c4                             469 
    x75       c1                             619  c3                              63 
    x75       c0                             103 
    x76       Obj                            627  c5                              43 
    x76       c7                              29  c4                             690 
    x76       c2                             723  c6                             122 
    x76       c0                             263  c8                             647 
    x76       c9                             636  c3                             407 
    x76       c1                             452 
    x77       c1                             274  c5                             728 
    x77       c8                             983  c2                             849 
    x77       Obj                           1117  c4                             541 
    x77       c3                             483  c9                             751 
    x77       c7                             878  c0                             766 
    x77       c6                             505 
    x78       c3                             238  c4                             906 
    x78       c8                             547  Obj                            735 
    x78       c6                             424  c2                             473 
    x78       c0                             606  c7                             668 
    x78       c9                             129  c1                             619 
    x78       c5                             741 
    x79       c5                             939  c9                             829 
    x79       c4                             524  c1                             729 
    x79       c8                              56  c0                             722 
    x79       c2                             351  c3                             355 
    x79       c6                             458  Obj                            997 
    x79       c7                             824 
    x80       c7                             930  c2                             616 
    x80       c6                             359  Obj                            728 
    x80       c5                             147  c9                             667 
    x80       c8                             110  c3                             296 
    x80       c0                             555  c4                             413 
    x80       c1                             638 
    x81       c3                             820  c8                             895 
    x81       c6                             299  c4                             219 
    x81       c0                             863  c9                             502 
    x81       Obj                            925  c1                             979 
    x81       c5                             823  c7                             797 
    x81       c2                             222 
    x82       c2                             820  c1                             611 
    x82       c0                              47  c8                             713 
    x82       c9                             558  c6                             639 
    x82       c3                             206  c7                             236 
    x82       c5                             328  c4                             968 
    x82       Obj                            863 
    x83       Obj                            556  c3                             432 
    x83       c8                             114  c5                             424 
    x83       c4                             405  c1                             807 
    x83       c2                             985  c7                             621 
    x83       c6                             428  c0                             599 
    x83       c9                             225 
    x84       c2                              57  c5                             492 
    x84       c4                             517  c7                             986 
    x84       c6                             260  Obj                            625 
    x84       c9                             272  c0                             270 
    x84       c1                             192  c8                             628 
    x84       c3                             340 
    x85       c0                             596  c5                             994 
    x85       c3                             970  c6                             596 
    x85       c7                              39  c8                             941 
    x85       Obj                           1024  c9                             446 
    x85       c1                             663  c2                             456 
    x85       c4                             423 
    x86       c7                             257  Obj                            813 
    x86       c0                             802  c4                             129 
    x86       c1                             129  c3                            1000 
    x86       c6                             227  c2                             956 
    x86       c8                             191  c9                             750 
    x86       c5                             958 
    x87       c0                             232  c7                             216 
    x87       c6                              53  Obj                            603 
    x87       c2                             315  c9                             127 
    x87       c5                             677  c1                             822 
    x87       c4                             194  c3                              13 
    x87       c8                             883 
    x88       c2                              81  c1                             885 
    x88       c4                             918  c6                             487 
    x88       c5                             940  Obj                            835 
    x88       c3                             167  c8                             936 
    x88       c9                             900  c0                             273 
    x88       c7                             858 
    x89       c1                             609  c9                             250 
    x89       c2                             469  c7                             235 
    x89       c0                              94  c8                             863 
    x89       Obj                            614  c5                              20 
    x89       c6                             727  c4                             226 
    x89       c3                             187 
    x90       c7                             956  c3                             386 
    x90       Obj                            958  c6                             139 
    x90       c0                             405  c8                             387 
    x90       c1                             396  c2                             261 
    x90       c4                             736  c9                             494 
    x90       c5                             441 
    x91       c5                             758  c6                             383 
    x91       c0                             466  c4                             584 
    x91       c7                             661  c2                              50 
    x91       c9                             380  c8                             256 
    x91       Obj                            899  c1                             964 
    x91       c3                             769 
    x92       c0                             611  c4                             731 
    x92       c1                             732  c9                             716 
    x92       c8                             985  c6                             757 
    x92       c3                             891  c5                             677 
    x92       Obj                            896  c2                             258 
    x92       c7                             624 
    x93       c0                             223  c8                             636 
    x93       Obj                            786  c9                             218 
    x93       c4                             261  c1                             908 
    x93       c5                             974  c3                             429 
    x93       c6                             447  c7                             173 
    x93       c2                             778 
    x94       c0                             727  c9                             857 
    x94       Obj                           1155  c4                             988 
    x94       c8                             105  c1                             520 
    x94       c6                             902  c7                             896 
    x94       c3                             965  c5                             150 
    x94       c2                             852 
    x95       Obj                            585  c1                             781 
    x95       c3                             375  c9                             730 
    x95       c4                              43  c0                             995 
    x95       c6                             617  c5                             144 
    x95       c8                             499  c2                             668 
    x95       c7                             240 
    x96       c8                             155  c3                             545 
    x96       c9                             328  c5                             948 
    x96       c4                             390  c0                             924 
    x96       c6                              16  c7                             321 
    x96       c2                             507  Obj                            517 
    x96       c1                             870 
    x97       c1                             411  c3                             599 
    x97       c4                             662  c9                             446 
    x97       c6                             881  c7                             795 
    x97       c0                             879  Obj                            942 
    x97       c2                             433  c8                             316 
    x97       c5                             659 
    x98       c6                             252  Obj                            761 
    x98       c2                             285  c9                             372 
    x98       c5                             643  c0                             191 
    x98       c7                             198  c4                             658 
    x98       c8                             696  c1                              77 
    x98       c3                             550 
    x99       c3                              34  c4                             931 
    x99       c5                             932  c2                             482 
    x99       c8                             861  Obj                            837 
    x99       c0                             445  c7                             425 
    x99       c6                             392  c1                             540 
    x99       c9                             962 
    INTEND    'MARKER'                            'INTEND'                           
RHS
    RHS       c0                           25015  c1                           24701 
    RHS       c2                           27636  c3                           25693 
    RHS       c4                           23518  c5                           25416 
    RHS       c6                           22952  c7                           24601 
    RHS       c8                           25554  c9                           25478 
BOUNDS
 BV Bound     x0                                 
 BV Bound     x1                                 
 BV Bound     x2                                 
 BV Bound     x3                                 
 BV Bound     x4                                 
 BV Bound     x5                                 
 BV Bound     x6                                 
 BV Bound     x7                                 
 BV Bound     x8                                 
 BV Bound     x9                                 
 BV Bound     x10                                
 BV Bound     x11                                
 BV Bound     x12                                
 BV Bound     x13                                
 BV Bound     x14                                
 BV Bound     x15                                
 BV Bound     x16                                
 BV Bound     x17                                
 BV Bound     x18                                
 BV Bound     x19                                
 BV Bound     x20                                
 BV Bound     x21                                
 BV Bound     x22                                
 BV Bound     x23                                
 BV Bound     x24                                
 BV Bound     x25                                
 BV Bound     x26                                
 BV Bound     x27                                
 BV Bound     x28                                
 BV Bound     x29                                
 BV Bound     x30                                
 BV Bound     x31                                
 BV Bound     x32                                
 BV Bound     x33                                
 BV Bound     x34                                
 BV Bound     x35                                
 BV Bound     x36                                
 BV Bound     x37                                
 BV Bound     x38                                
 BV Bound     x39                                
 BV Bound     x40                                
 BV Bound     x41                                
 BV Bound     x42                                
 BV Bound     x43                                
 BV Bound     x44                                
 BV Bound     x45                                
 BV Bound     x46                                
 BV Bound     x47                                
 BV Bound     x48                                
 BV Bound     x49                                
 BV Bound     x50                                
 BV Bound     x51                                
 BV Bound     x52                                
 BV Bound     x53                                
 BV Bound     x54                                
 BV Bound     x55                                
 BV Bound     x56                                
 BV Bound     x57                                
 BV Bound     x58                                
 BV Bound     x59                                
 BV Bound     x60                                
 BV Bound     x61                                
 BV Bound     x62                                
 BV Bound     x63                                
 BV Bound     x64                                
 BV Bound     x65                                
 BV Bound     x66                                
 BV Bound     x67                                
 BV Bound     x68                                
 BV Bound     x69                                
 BV Bound     x70                                
 BV Bound     x71                                
 BV Bound     x72                                
 BV Bound     x73                                
 BV Bound     x74                                
 BV Bound     x75                                
 BV Bound     x76                                
 BV Bound     x77                                
 BV Bound     x78                                
 BV Bound     x79                                
 BV Bound     x80                                
 BV Bound     x81                                
 BV Bound     x82                                
 BV Bound     x83                                
 BV Bound     x84                                
 BV Bound     x85                                
 BV Bound     x86                                
 BV Bound     x87                                
 BV Bound     x88                                
 BV Bound     x89                                
 BV Bound     x90                                
 BV Bound     x91                                
 BV Bound     x92                                
 BV Bound     x93                                
 BV Bound     x94                                
 BV Bound     x95                                
 BV Bound     x96                                
 BV Bound     x97                                
 BV Bound     x98                                
 BV Bound     x99                                
ENDATA