* SCIP STATISTICS
*   Problem name     : mknap_19
*   Variables        : 100 (100 binary, 0 integer, 0 implicit integer, 0 continuous)
*   Constraints      : 10
NAME          mknap_19
OBJSENSE
  MAX
ROWS
 N  Obj 
 L  c0 
 L  c1 
 L  c2 
 L  c3 
 L  c4 
 L  c5 
 L  c6 
 L  c7 
 L  c8 
 L  c9 
COLUMNS
    INTSTART  'MARKER'                            'INTORG'                           
    x0        Obj                            722  c5                             905 
    x0        c4                             524  c6                             133 
    x0        c3                             121  c7                             171 
    x0        c2                             796  c8                             741 
    x0        c1                              67  c9                             859 
    x0        c0                             945 
    x1        Obj                            495  c5                             125 
    x1        c4                             814  c6                             306 
    x1        c3                             494  c7                             706 
    x1        c2                             104  c8                             692 
    x1        c1                             148  c9                               3 
    x1        c0                             309 
    x2        c9                             175  c5                             709 
    x2        Obj                            542  c3                             110 
    x2        c1                             506  c4                             921 
    x2        c0                             192  c8                             348 
    x2        c7                              39  c2                             624 
    x2        c6                             275 
    x3        c9                             953  c8                             584 
    x3        c2                             165  c1                             220 
    x3        c6                             719  c7                             452 
    x3        c3                             551  Obj                            575 
    x3        c4                             756  c0                             634 
    x3        c5                             171 
    x4        c4                             337  c3                             979 
    x4        c0                             450  c6                             906 
    x4        Obj                            912  c1                             512 
    x4        c7                             647  c2                             793 
    x4        c5                             182  c8                             857 
    x4        c9                             232 
    x5        c8                             135  c3                             435 
    x5        c1                             334  c5                             456 
    x5        c6                             153  c7                             683 
    x5        Obj                            671  c4                             737 
    x5        c0                             471  c9                             376 
    x5        c2                             320 
    x6        Obj                            894  c3                             731 
    x6        c8                             975  c4                             906 
    x6        c0                             257  c7                             754 
    x6        c5                             173  c9                             658 
    x6        c1                             446  c2                             594 
    x6        c6                             776 
    x7        c9                             995  c5                             616 
    x7        c1                             252  c7                             597 
    x7        c2                             357  c4                             971 
    x7        Obj                            904  c8                             719 
    x7        c0                             725  c3                             494 
    x7        c6                             332 
    x8        c5                             155  c7                             647 
    x8        c2                             962  c4                             797 
    x8        c1                             998  c6                             197 
    x8        c0                             230  c8                             254 
    x8        Obj                            845  c3                             652 
    x8        c9                             881 
    x9        c9                             272  c4                              54 
    x9        c8                              64  c6                               9 
    x9        c0                             866  Obj                            469 
    x9        c1                             655  c3                             399 
    x9        c7                             113  c5                             137 
    x9        c2                              43 
    x10       c9                             609  c3                             818 
    x10       Obj                            661  c4                             294 
    x10       c8                             682  c6                             309 
    x10       c0                             965  c5                             794 
    x10       c7                              71  c2                             405 
    x10       c1                              67 
    x11       c1                             424  c8                             456 
    x11       c0                             554  c9                             837 
    x11       c2                             187  c7                             732 
    x11       c3                             215  c6                             403 
    x11       c4                             907  c5                             437 
    x11       Obj                            672 
    x12       Obj                            709  c5                             680 
    x12       c3                             858  c1                             986 
    x12       c7                             534  c9                             697 
    x12       c8                             650  c0                             264 
    x12       c6                             877  c2                              75 
    x12       c4                             717 
    x13       c5                             759  c8                             497 
    x13       c3                             318  c7                             885 
    x13       c9                             686  c0                             330 
    x13       c1                             326  c6                             984 
    x13       c2                             951  c4                             776 
    x13       Obj                            862 
    x14       Obj                            777  c4                             277 
    x14       c5                             139  c6                             254 
    x14       c7                             133  c1                             776 
    x14       c2                             597  c0                             458 
    x14       c3                              61  c9                             214 
    x14       c8                             559 
    x15       c9                             854  c1                             110 
    x15       c2                             422  c7                              77 
    x15       c6                             392  c8                             737 
    x15       Obj                            649  c3                              40 
    x15       c0                             617  c5                             273 
    x15       c4                             592 
    x16       c3                             466  Obj                            526 
    x16       c5                             427  c9                              79 
    x16       c1                             973  c4                             536 
    x16       c7                             896  c6                              33 
    x16       c0                             250  c8                             367 
    x16       c2                             399 
    x17       c7                              87  c3                             127 
    x17       c9                             760  Obj                            536 
    x17       c4                              35  c2                             246 
    x17       c1                              97  c5                             894 
    x17       c6                             622  c0                             524 
    x17       c8                             951 
    x18       c8                             463  c1                             580 
    x18       c5                             429  c6                             145 
    x18       c0                             171  c3                              58 
    x18       c9                              87  Obj                            767 
    x18       c7                             706  c2                             466 
    x18       c4                             870 
    x19       Obj                            829  c5                             844 
    x19       c8                             947  c0                             356 
    x19       c9                             630  c2                             664 
    x19       c6                             351  c3                             597 
    x19       c4                             375  c7                             794 
    x19       c1                             392 
    x20       c1                             674  c7                             181 
    x20       c3                             197  c4                             552 
    x20       Obj                            379  c9                             418 
    x20       c8                              73  c0                              19 
    x20       c5                             398  c2                              40 
    x20       c6                             300 
    x21       c9                             121  c1                             159 
    x21       c2                             646  c4                             226 
    x21       Obj                            555  c5                             845 
    x21       c0                             781  c6                             321 
    x21       c3                             494  c8                             897 
    x21       c7                             290 
    x22       c8                             886  Obj                            594 
    x22       c0                             677  c1                             461 
    x22       c9                             458  c2                             848 
    x22       c5                             119  c7                             360 
    x22       c4                             146  c3                             693 
    x22       c6                             715 
    x23       c8                             268  c6                             976 
    x23       c0                             134  Obj                            860 
    x23       c9                             109  c1                             946 
    x23       c2                             227  c5                             673 
    x23       c7                             731  c4                             439 
    x23       c3                             934 
    x24       c3                             349  c0                             164 
    x24       c6                             572  c9                             952 
    x24       Obj                            752  c1                             687 
    x24       c7                             239  c2                             550 
    x24       c4                             735  c5                             774 
    x24       c8                             951 
    x25       c9                              92  c0                             394 
    x25       c3                             459  c1                             493 
    x25       c7                             580  c8                             643 
    x25       Obj                            680  c6                             776 
    x25       c5                             647  c4                             368 
    x25       c2                              40 
    x26       Obj                            909  c5                             201 
    x26       c9                             741  c2                             761 
    x26       c0                              31  c3                             606 
    x26       c7                             632  c8                             648 
    x26       c4                             720  c1                               7 
    x26       c6                             122 
    x27       c5                             300  c0                             951 
    x27       c3                             274  Obj                            436 
    x27       c7                              23  c6                             561 
    x27       c1                               2  c8                             349 
    x27       c9                               7  c4                             720 
    x27       c2                              70 
    x28       c1                             636  c9                             751 
    x28       Obj                            924  c7                             403 
    x28       c6                              24  c2                             681 
    x28       c3                             298  c8                             660 
    x28       c0                             497  c4                             373 
    x28       c5                             819 
    x29       c8                              30  c9                             903 
    x29       c7                             591  c6                             665 
    x29       c0                             460  Obj                            785 
    x29       c4                             912  c3                              96 
    x29       c2                             779  c5                             729 
    x29       c1                             201 
    x30       c0                             239  c6                             742 
    x30       c3                             107  c7                             780 
    x30       c1                             488  Obj                            424 
    x30       c4                             123  c8                             169 
    x30       c9                             217  c5                             460 
    x30       c2                             122 
    x31       c7                             184  c4                             453 
    x31       c1                             957  c2                             884 
    x31       c0                             883  Obj                            850 
    x31       c6                             844  c8                              22 
    x31       c3                              70  c5                             450 
    x31       c9                             449 
    x32       c7                             777  c3                             154 
    x32       c4                             499  c6                             877 
    x32       c2                             103  c1                             485 
    x32       c5                             718  c9                             992 
    x32       c8                             994  c0                             719 
    x32       Obj                           1030 
    x33       c2                             950  c0                             449 
    x33       c8                             501  c1                             768 
    x33       c3                             902  c9                              44 
    x33       Obj                            615  c4                              93 
    x33       c7                             697  c6                             131 
    x33       c5                             944 
    x34       c4                             886  c6                             494 
    x34       c9                             677  c0                             788 
    x34       c3                             555  c5                              47 
    x34       c7                             206  c2                             704 
    x34       Obj                            672  c1                             117 
    x34       c8                             807 
    x35       c4                             472  c5                             125 
    x35       c9                             362  c3                              99 
    x35       Obj                            892  c7                             719 
    x35       c8                             403  c2                             659 
    x35       c1                              86  c0                             438 
    x35       c6                             933 
    x36       c6                             399  c2                             549 
    x36       c1                             552  c9                              46 
    x36       c7                             355  c8                             195 
    x36       Obj                            525  c5                             470 
    x36       c4                             679  c3                              36 
    x36       c0                              73 
    x37       c4                              73  c9                             726 
    x37       c8                              88  c6                             635 
    x37       c2                             799  c1                             632 
    x37       Obj                            793  c5                             984 
    x37       c7                             619  c0                             948 
    x37       c3                             524 
    x38       c0                             967  Obj                            925 
    x38       c2                             521  c4                             490 
    x38       c1                             199  c6                             828 
    x38       c9                             185  c7                             233 
    x38       c8                             288  c5                             854 
    x38       c3                             104 
    x39       c8                             743  c6                             770 
    x39       Obj                            814  c0                             367 
    x39       c5                             509  c1                             709 
    x39       c7                             709  c2                             183 
    x39       c9                             969  c4                             698 
    x39       c3                             827 
    x40       c3                             339  c9                             306 
    x40       c7                              39  c1                             525 
    x40       c4                             197  c2                             614 
    x40       c6                              24  c0                             803 
    x40       c8                             552  c5                             232 
    x40       Obj                            522 
    x41       Obj                            755  c0                             167 
    x41       c8                             505  c7                             683 
    x41       c4                             654  c1                             724 
    x41       c6                              95  c5                             484 
    x41       c2                             230  c9                             120 
    x41       c3                             716 
    x42       c8                             275  c0                               9 
    x42       c9                             185  c5                             123 
    x42       c7                             307  Obj                            845 
    x42       c3                             897  c6                              64 
    x42       c2                             618  c1                             619 
    x42       c4                             725 
    x43       c1                             553  c8                             842 
    x43       c0                             111  c9                             611 
    x43       c6                             928  c3                             906 
    x43       c4                             951  Obj                           1010 
    x43       c5                             749  c2                             306 
    x43       c7                             397 
    x44       c7                              13  Obj                            554 
    x44       c8                             110  c1                             872 
    x44       c2                             435  c0                             659 
    x44       c9                             275  c3                             763 
    x44       c6                             306  c4                             514 
    x44       c5                             881 
    x45       c5                             322  Obj                            622 
    x45       c1                             507  c2                             329 
    x45       c0                             198  c7                             210 
    x45       c4                             358  c9                              53 
    x45       c8                             792  c3                             430 
    x45       c6                             563 
    x46       c8                             480  c3                             770 
    x46       c6                              77  c5                             826 
    x46       c7                             455  c1                             196 
    x46       c2                             972  c9                              69 
    x46       c0                             331  c4                             827 
    x46       Obj                            619 
    x47       c3                             660  c1                             293 
    x47       c2                             837  c0                             336 
    x47       c4                             515  c6                             985 
    x47       c9                             385  c8                             564 
    x47       c5                             747  Obj                           1118 
    x47       c7                             866 
    x48       c8                             899  Obj                            803 
    x48       c6                             980  c4                             264 
    x48       c2                              96  c9                             544 
    x48       c7                             383  c0                              67 
    x48       c5                             693  c3                              93 
    x48       c1                             311 
    x49       c5                             330  c7                             741 
    x49       c3                            1000  c0                             899 
    x49       c1                             144  c8                             175 
    x49       c9                             655  c4                             475 
    x49       c2                             150  Obj                            704 
    x49       c6                             695 
    x50       c3                             325  c8                             287 
    x50       c9                              35  c4                             617 
    x50       c2                              77  c7                             948 
    x50       c5                              54  c6                             797 
    x50       Obj                            462  c0                             567 
    x50       c1                              65 
    x51       c6                             184  c8                             695 
    x51       c2                              91  c7                             587 
    x51       c4                             447  c1                             252 
    x51       c3                             361  c0                             301 
    x51       c9                             139  c5                             149 
    x51       Obj                            495 
    x52       c3                             427  c8                             475 
    x52       c5                             462  c2                             123 
    x52       c7                             564  c6                             247 
    x52       c1                             276  c4                             664 
    x52       c0                              79  c9                             710 
    x52       Obj                            889 
    x53       c5                              65  c2                             554 
    x53       c6                             237  c0                             256 
    x53       c7                             812  c1                             439 
    x53       c4                             286  c3                             284 
    x53       Obj                            633  c9                             720 
    x53       c8                             197 
    x54       c1                             534  c8                             225 
    x54       c3                             492  c6                             342 
    x54       c5                             102  c0                             642 
    x54       c9                             772  Obj                            663 
    x54       c7                             968  c4                             342 
    x54       c2                             112 
    x55       c5                             532  c4                             505 
    x55       c9                             472  Obj                            953 
    x55       c6                             912  c0                             958 
    x55       c7                             713  c1                             828 
    x55       c2                             330  c8                             102 
    x55       c3                             667 
    x56       Obj                            562  c4                             923 
    x56       c3                             754  c5                             124 
    x56       c8                             291  c0                             374 
    x56       c2                             851  c9                             176 
    x56       c1                             290  c7                             755 
    x56       c6                             293 
    x57       c6                             572  c5                             882 
    x57       c9                             594  c1                             868 
    x57       c8                             858  Obj                            806 
    x57       c2                             492  c3                             136 
    x57       c7                             284  c4                             976 
    x57       c0                             705 
    x58       c8                             704  c9                              30 
    x58       c0                             830  c4                             968 
    x58       Obj                            727  c3                             622 
    x58       c2                               4  c1                             563 
    x58       c5                             756  c6                             497 
    x58       c7                             778 
    x59       c5                              50  c3                             412 
    x59       c7                             325  c6                             975 
    x59       c9                             416  c1                             435 
    x59       c4                             775  c2                             640 
    x59       c8                             639  c0                             816 
    x59       Obj                            604 
    x60       c6                             342  c1                             703 
    x60       c5                             727  c9                             265 
    x60       c8                             978  c0                             427 
    x60       c2                             572  c4                             742 
    x60       Obj                            705  c7                             927 
    x60       c3                             210 
    x61       c6                             230  c5                             151 
    x61       c2                             984  Obj                            831 
    x61       c9                             959  c8                             535 
    x61       c7                             317  c4                             514 
    x61       c3                             172  c1                             395 
    x61       c0                             421 
    x62       c2                             293  c6                             894 
    x62       c9                             951  c0                             705 
    x62       c5                             523  c8                             975 
    x62       c7                             354  c4                             704 
    x62       Obj                            850  c1                             271 
    x62       c3                             189 
    x63       Obj                            973  c4                             953 
    x63       c6                             718  c7                             785 
    x63       c2                             670  c8                             154 
    x63       c5                              74  c3                             832 
    x63       c9                             783  c0                             670 
    x63       c1                             421 
    x64       c2                             700  c7                             127 
    x64       c5                             964  c6                              82 
    x64       c9                             291  c8                             923 
    x64       c1                             566  c0                              72 
    x64       c3                             207  Obj                            632 
    x64       c4                             265 
    x65       c4                             260  c8                             531 
    x65       Obj                            638  c2                             109 
    x65       c3                             838  c6                             569 
    x65       c5                             978  c7                              99 
    x65       c1                             639  c9                             167 
    x65       c0                             609 
    x66       Obj                            705  c2                             356 
    x66       c6                             994  c9                              20 
    x66       c3                             345  c1                             331 
    x66       c5                             958  c7                             193 
    x66       c0                             375  c4                             421 
    x66       c8                             961 
    x67       c8                             806  c3                             550 
    x67       c7                             221  c5                             172 
    x67       c2                             519  c9                             210 
    x67       Obj                            692  c1                             824 
    x67       c4                             497  c0                             730 
    x67       c6                             110 
    x68       c7                             418  Obj                            912 
    x68       c9                             453  c0                             719 
    x68       c1                             153  c2                             621 
    x68       c6                             765  c4                             495 
    x68       c5                             211  c8                             188 
    x68       c3                             229 
    x69       c7                             549  c3                             165 
    x69       c0                             771  c1                              99 
    x69       c4                             944  c8                             828 
    x69       c5                             406  c9                             733 
    x69       Obj                            533  c6                             216 
    x69       c2                             494 
    x70       c7                             351  c6                             907 
    x70       c3                             599  c5                             160 
    x70       c8                             155  c2                             183 
    x70       c9                             405  Obj                            510 
    x70       c4                             697  c0                             592 
    x70       c1                             325 
    x71       c4                             316  c8                             600 
    x71       c3                             557  c0                             161 
    x71       c1                             710  c7                             974 
    x71       c6                             482  Obj                            829 
    x71       c5                             173  c2                             512 
    x71       c9                             975 
    x72       c0                             553  c3                             805 
    x72       Obj                            939  c1                             697 
    x72       c8                             267  c7                             765 
    x72       c5                             269  c2                             625 
    x72       c6                             534  c4                             387 
    x72       c9                             310 
    x73       c7                             104  c2                             377 
    x73       Obj                            570  c9                             481 
    x73       c1                             290  c3                             175 
    x73       c5                             517  c8                             124 
    x73       c6                             391  c0                             702 
    x73       c4                             172 
    x74       c2                             961  c5                             296 
    x74       c7                             416  c6                             858 
    x74       c8                             368  c9                             585 
    x74       Obj                            584  c0                             217 
    x74       c3                             951  c4                             349 
    x74       c1                             139 
    x75       c6                             494  c7                             686 
    x75       c5                              80  c9                             550 
    x75       c8                             483  c2                             693 
    x75       Obj                            621  c4                             894 
    x75       c1                             488  c3                             992 
    x75       c0                             706 
    x76       Obj                            790  c5                             742 
    x76       c7                             381  c4                             158 
    x76       c2                             142  c6                             854 
    x76       c0                             754  c8                             333 
    x76       c9                             764  c3                             209 
    x76       c1                             917 
    x77       c1                             263  c5                             824 
    x77       c8                             776  c2                             889 
    x77       Obj                            884  c4                             801 
    x77       c3                             227  c9                              35 
    x77       c7                             440  c0                             434 
    x77       c6                             881 
    x78       c3                             624  c4                             341 
    x78       c8                             697  Obj                            995 
    x78       c6                             933  c2                             976 
    x78       c0                             707  c7                             542 
    x78       c9                             976  c1                             444 
    x78       c5                             176 
    x79       c5                             934  c9                              25 
    x79       c4                             599  c1                             170 
    x79       c8                             142  c0                             333 
    x79       c2                             784  c3                             786 
    x79       c6                             394  Obj                            857 
    x79       c7                             686 
    x80       c7                             547  c2                             199 
    x80       c6                             936  Obj                            606 
    x80       c5                             590  c9                             363 
    x80       c8                             303  c3                             953 
    x80       c0                              27  c4                             739 
    x80       c1                              60 
    x81       c3                             734  c8                              63 
    x81       c6                             609  c4                             791 
    x81       c0                             673  c9                             996 
    x81       Obj                           1027  c1                             700 
    x81       c5                             752  c7                             155 
    x81       c2                             483 
    x82       c2                             777  c1                             676 
    x82       c0                             942  c8                              97 
    x82       c9                             692  c6                             167 
    x82       c3                             747  c7                              30 
    x82       c5                             409  c4                              35 
    x82       Obj                            499 
    x83       Obj                            763  c3                             600 
    x83       c8                              24  c5                             167 
    x83       c4                             223  c1                             483 
    x83       c2                             952  c7                             883 
    x83       c6                             839  c0                             611 
    x83       c9                             445 
    x84       c2                             318  c5                             535 
    x84       c4                             878  c7                             658 
    x84       c6                             813  Obj                            771 
    x84       c9                             198  c0                             645 
    x84       c1                             795  c8                             920 
    x84       c3                             372 
    x85       c0                             930  c5                             807 
    x85       c3                             862  c6                              42 
    x85       c7                             254  c8                             471 
    x85       Obj                            561  c9                             405 
    x85       c1                             100  c2                             682 
    x85       c4                             709 
    x86       c7                             954  Obj                            557 
    x86       c0                              68  c4                             269 
    x86       c1                              96  c3                             426 
    x86       c6                             120  c2                             795 
    x86       c8                               9  c9                             279 
    x86       c5                             209 
    x87       c0                             857  c7                             531 
    x87       c6                             270  Obj                            627 
    x87       c2                             618  c9                             670 
    x87       c5                             326  c1                             857 
    x87       c4                             578  c3                             345 
    x87       c8                             620 
    x88       c2                             714  c1                             917 
    x88       c4                             232  c6                             677 
    x88       c5                             766  Obj                            821 
    x88       c3                             534  c8                             964 
    x88       c9                             183  c0                             893 
    x88       c7                             265 
    x89       c1                             183  c9                             772 
    x89       c2                             619  c7                              83 
    x89       c0                              93  c8                             775 
    x89       Obj                            603  c5                             797 
    x89       c6                              55  c4                             298 
    x89       c3                             376 
    x90       c7                             177  c3                             743 
    x90       Obj                            604  c6                             331 
    x90       c0                             901  c8                              56 
    x90       c1                             876  c2                              69 
    x90       c4                             902  c9                             195 
    x90       c5                             384 
    x91       c5                             542  c6                             499 
    x91       c0                             324  c4                             124 
    x91       c7                             295  c2                             178 
    x91       c9                              28  c8                             524 
    x91       Obj                            821  c1                             702 
    x91       c3                             254 
    x92       c0                              21  c4                             644 
    x92       c1                              61  c9                             687 
    x92       c8                             545  c6                             333 
    x92       c3                             772  c5                             898 
    x92       Obj                            925  c2                             373 
    x92       c7                              32 
    x93       c0                             403  c8                             867 
    x93       Obj                            868  c9                             426 
    x93       c4                             644  c1                             664 
    x93       c5                             468  c3                             825 
    x93       c6                             602  c7                             337 
    x93       c2                              81 
    x94       c0                             334  c9                             411 
    x94       Obj                            852  c4                             884 
    x94       c8                             232  c1                             253 
    x94       c6                             181  c7                              16 
    x94       c3                             740  c5                              45 
    x94       c2                             481 
    x95       Obj                            721  c1                             429 
    x95       c3                             800  c9                             431 
    x95       c4                             683  c0                             571 
    x95       c6                             949  c5                             631 
    x95       c8                             183  c2                             256 
    x95       c7                             526 
    x96       c8                             879  c3                             224 
    x96       c9                             148  c5                             597 
    x96       c4                             543  c0                             325 
    x96       c6                             995  c7                             525 
    x96       c2                             586  Obj                            855 
    x96       c1                              52 
    x97       c1                             783  c3                             511 
    x97       c4                             275  c9                             141 
    x97       c6                             637  c7                             539 
    x97       c0                             915  Obj                            567 
    x97       c2                             222  c8                              35 
    x97       c5                             658 
    x98       c6                             366  Obj                            628 
    x98       c2                             485  c9                             525 
    x98       c5                             187  c0                             456 
    x98       c7                             743  c4                             871 
    x98       c8                             689  c1                             778 
    x98       c3                             262 
    x99       c3                             118  c4                             831 
    x99       c5                             430  c2                              51 
    x99       c8                             379  Obj                            681 
    x99       c0                             695  c7                             949 
    x99       c6                             289  c1                             162 
    x99       c9                              11 
    INTEND    'MARKER'                            'INTEND'                           
RHS
    RHS       c0                           24999  c1                           22947 
    RHS       c2                           23773  c3                           24108 
    RHS       c4                           27749  c5                           24234 
    RHS       c6                           25496  c7                           23848 
    RHS       c8                           25210  c9                           22644 
BOUNDS
 BV Bound     x0                                 
 BV Bound     x1                                 
 BV Bound     x2                                 
 BV Bound     x3                                 
 BV Bound     x4                                 
 BV Bound     x5                                 
 BV Bound     x6                                 
 BV Bound     x7                                 
 BV Bound     x8                                 
 BV Bound     x9                                 
 BV Bound     x10                                
 BV Bound     x11                                
 BV Bound     x12                                
 BV Bound     x13                                
 BV Bound     x14                                
 BV Bound     x15                                
 BV Bound     x16                                
 BV Bound     x17                                
 BV Bound     x18                                
 BV Bound     x19                                
 BV Bound     x20                                
 BV Bound     x21                                
 BV Bound     x22                                
 BV Bound     x23                                
 BV Bound     x24                                
 BV Bound     x25                                
 BV Bound     x26                                
 BV Bound     x27                                
 BV Bound     x28                                
 BV Bound     x29                                
 BV Bound     x30                                
 BV Bound     x31                                
 BV Bound     x32                                
 BV Bound     x33                                
 BV Bound     x34                                
 BV Bound     x35                                
 BV Bound     x36                                
 BV Bound     x37                                
 BV Bound     x38                                
 BV Bound     x39                                
 BV Bound     x40                                
 BV Bound     x41                                
 BV Bound     x42                                
 BV Bound     x43                                
 BV Bound     x44                                
 BV Bound     x45                                
 BV Bound     x46                                
 BV Bound     x47                                
 BV Bound     x48                                
 BV Bound     x49                                
 BV Bound     x50                                
 BV Bound     x51                                
 BV Bound     x52                                
 BV Bound     x53                                
 BV Bound     x54                                
 BV Bound     x55                                
 BV Bound     x56                                
 BV Bound     x57                                
 BV Bound     x58                                
 BV Bound     x59                                
 BV Bound     x60                                
 BV Bound     x61                                
 BV Bound     x62                                
 BV Bound     x63                                
 BV Bound     x64                                
 BV Bound     x65                                
 BV Bound     x66                                
 BV Bound     x67                                
 BV Bound     x68                                
 BV Bound     x69                                
 BV Bound     x70                                
 BV Bound     x71                                
 BV Bound     x72                                
 BV Bound     x73                                
 BV Bound     x74                                
 BV Bound     x75                                
 BV Bound     x76                                
 BV Bound     x77                                
 BV Bound     x78                                
 BV Bound     x79                                
 BV Bound     x80                                
 BV Bound     x81                                
 BV Bound     x82                                
 BV Bound     x83                                
 BV Bound     x84                                
 BV Bound     x85                                
 BV Bound     x86                                
 BV Bound     x87                                
 BV Bound     x88                                
 BV Bound     x89                                
 BV Bound     x90                                
 BV Bound     x91                                
 BV Bound     x92                                
 BV Bound     x93                                
 BV Bound     x94                                
 BV Bound     x95                                
 BV Bound     x96                                
 BV Bound     x97                                
 BV Bound     x98                                
 BV Bound     x99                                
ENDATA