* SCIP STATISTICS
*   Problem name     : mknap_18
*   Variables        : 100 (100 binary, 0 integer, 0 implicit integer, 0 continuous)
*   Constraints      : 10
NAME          mknap_18
OBJSENSE
  MAX
ROWS
 N  Obj 
 L  c0 
 L  c1 
 L  c2 
 L  c3 
 L  c4 
 L  c5 
 L  c6 
 L  c7 
 L  c8 
 L  c9 
COLUMNS
    INTSTART  'MARKER'                            'INTORG'                           
    x0        Obj                           1018  c5                             392 
    x0        c4                             159  c6                             163 
    x0        c3                             533  c7                             952 
    x0        c2                             503  c8                             662 
    x0        c1                            1000  c9                             470 
    x0        c0                             731 
    x1        Obj                            396  c5                              84 
    x1        c4                             361  c6                             509 
    x1        c3                             716  c7                             117 
    x1        c2                             194  c8                             443 
    x1        c1                              61  c9                             432 
    x1        c0                             176 
    x2        c9                             410  c5                             110 
    x2        Obj                            593  c3                             432 
    x2        c1                             448  c4                             163 
    x2        c0                             418  c8                             594 
    x2        c7                             310  c2                             237 
    x2        c6                             732 
    x3        c9                              60  c8                             685 
    x3        c2                             859  c1                             660 
    x3        c6                             118  c7                             731 
    x3        c3                             231  Obj                            784 
    x3        c4                             231  c0                             308 
    x3        c5                             590 
    x4        c4                             461  c3                              94 
    x4        c0                             107  c6                             953 
    x4        Obj                            284  c1                             122 
    x4        c7                             394  c2                             309 
    x4        c5                              52  c8                              51 
    x4        c9                             168 
    x5        c8                             486  c3                             795 
    x5        c1                             523  c5                             112 
    x5        c6                             936  c7                             562 
    x5        Obj                            848  c4                             374 
    x5        c0                             946  c9                             264 
    x5        c2                             143 
    x6        Obj                            380  c3                             377 
    x6        c8                             656  c4                             331 
    x6        c0                             121  c7                             249 
    x6        c5                             752  c9                             179 
    x6        c1                             583  c2                             426 
    x6        c6                              98 
    x7        c9                             859  c5                             737 
    x7        c1                             358  c7                             565 
    x7        c2                             273  c4                             478 
    x7        Obj                           1077  c8                             464 
    x7        c0                             669  c3                             572 
    x7        c6                             862 
    x8        c5                              83  c7                             847 
    x8        c2                             596  c4                             411 
    x8        c1                             930  c6                             977 
    x8        c0                             431  c8                             919 
    x8        Obj                            948  c3                             813 
    x8        c9                              80 
    x9        c9                             263  c4                             168 
    x9        c8                             780  c6                             795 
    x9        c0                             276  Obj                            928 
    x9        c1                             633  c3                             190 
    x9        c7                             916  c5                             222 
    x9        c2                             202 
    x10       c9                             396  c3                             234 
    x10       Obj                            786  c4                             234 
    x10       c8                             290  c6                             708 
    x10       c0                             690  c5                             102 
    x10       c7                             269  c2                             598 
    x10       c1                              39 
    x11       c1                             587  c8                             182 
    x11       c0                              18  c9                             186 
    x11       c2                             279  c7                             808 
    x11       c3                             708  c6                              64 
    x11       c4                             817  c5                             959 
    x11       Obj                            605 
    x12       Obj                            638  c5                             772 
    x12       c3                             904  c1                             442 
    x12       c7                             311  c9                             414 
    x12       c8                             610  c0                             115 
    x12       c6                             418  c2                             615 
    x12       c4                              70 
    x13       c5                             102  c8                             918 
    x13       c3                             395  c7                             448 
    x13       c9                             550  c0                             978 
    x13       c1                             567  c6                             675 
    x13       c2                               2  c4                             167 
    x13       Obj                            877 
    x14       Obj                            930  c4                             562 
    x14       c5                             682  c6                             151 
    x14       c7                             554  c1                             130 
    x14       c2                             739  c0                             217 
    x14       c3                             666  c9                              77 
    x14       c8                             904 
    x15       c9                             925  c1                             378 
    x15       c2                              41  c7                             443 
    x15       c6                               1  c8                             910 
    x15       Obj                            500  c3                              71 
    x15       c0                              70  c5                              14 
    x15       c4                             451 
    x16       c3                             330  Obj                            441 
    x16       c5                             780  c9                              12 
    x16       c1                             492  c4                             978 
    x16       c7                              65  c6                              50 
    x16       c0                             479  c8                             187 
    x16       c2                             730 
    x17       c7                             372  c3                             979 
    x17       c9                             719  Obj                            785 
    x17       c4                             307  c2                             379 
    x17       c1                             531  c5                             267 
    x17       c6                             140  c0                             347 
    x17       c8                             739 
    x18       c8                             889  c1                              30 
    x18       c5                             400  c6                              59 
    x18       c0                             461  c3                             982 
    x18       c9                             715  Obj                            726 
    x18       c7                             865  c2                             414 
    x18       c4                             995 
    x19       Obj                            720  c5                             550 
    x19       c8                              20  c0                             101 
    x19       c9                             794  c2                             579 
    x19       c6                             752  c3                             132 
    x19       c4                             528  c7                             995 
    x19       c1                             364 
    x20       c1                             234  c7                             249 
    x20       c3                             333  c4                             404 
    x20       Obj                            535  c9                             510 
    x20       c8                             114  c0                             524 
    x20       c5                             142  c2                             734 
    x20       c6                             325 
    x21       c9                              27  c1                             638 
    x21       c2                             186  c4                             749 
    x21       Obj                            633  c5                             200 
    x21       c0                             353  c6                             553 
    x21       c3                             938  c8                              98 
    x21       c7                             981 
    x22       c8                             297  Obj                            595 
    x22       c0                             556  c1                             728 
    x22       c9                             319  c2                             363 
    x22       c5                             773  c7                             213 
    x22       c4                             143  c3                             351 
    x22       c6                              38 
    x23       c8                             171  c6                             128 
    x23       c0                             390  Obj                            794 
    x23       c9                             106  c1                             236 
    x23       c2                             153  c5                             432 
    x23       c7                             595  c4                             620 
    x23       c3                             925 
    x24       c3                             219  c0                             992 
    x24       c6                             990  c9                             349 
    x24       Obj                           1007  c1                             843 
    x24       c7                             764  c2                             411 
    x24       c4                             899  c5                             189 
    x24       c8                             210 
    x25       c9                              10  c0                              93 
    x25       c3                             191  c1                              99 
    x25       c7                             657  c8                              17 
    x25       Obj                            681  c6                             181 
    x25       c5                             869  c4                             907 
    x25       c2                             690 
    x26       Obj                            715  c5                             751 
    x26       c9                             273  c2                             335 
    x26       c0                             735  c3                             236 
    x26       c7                             513  c8                             349 
    x26       c4                             849  c1                             199 
    x26       c6                             737 
    x27       c5                             590  c0                             610 
    x27       c3                             669  Obj                            872 
    x27       c7                             251  c6                             289 
    x27       c1                             491  c8                             243 
    x27       c9                              79  c4                             544 
    x27       c2                             966 
    x28       c1                             324  c9                             763 
    x28       Obj                            649  c7                              19 
    x28       c6                             736  c2                             304 
    x28       c3                              11  c8                             792 
    x28       c0                             136  c4                             218 
    x28       c5                             874 
    x29       c8                             465  c9                             163 
    x29       c7                             516  c6                             501 
    x29       c0                             512  Obj                            842 
    x29       c4                             280  c3                             639 
    x29       c2                             218  c5                             876 
    x29       c1                             893 
    x30       c0                              20  c6                             396 
    x30       c3                              13  c7                             721 
    x30       c1                             945  Obj                            685 
    x30       c4                             828  c8                             956 
    x30       c9                             410  c5                             563 
    x30       c2                             103 
    x31       c7                             186  c4                             252 
    x31       c1                             458  c2                             281 
    x31       c0                             250  Obj                            455 
    x31       c6                             234  c8                             779 
    x31       c3                             130  c5                             950 
    x31       c9                             381 
    x32       c7                             763  c3                             356 
    x32       c4                             974  c6                             362 
    x32       c2                             396  c1                             733 
    x32       c5                             958  c9                             468 
    x32       c8                             628  c0                             330 
    x32       Obj                            920 
    x33       c2                             243  c0                             346 
    x33       c8                             213  c1                               6 
    x33       c3                              66  c9                             393 
    x33       Obj                            553  c4                             768 
    x33       c7                             634  c6                             194 
    x33       c5                             286 
    x34       c4                             140  c6                             833 
    x34       c9                             916  c0                             527 
    x34       c3                             589  c5                             544 
    x34       c7                             384  c2                             411 
    x34       Obj                            668  c1                             360 
    x34       c8                             341 
    x35       c4                             939  c5                             982 
    x35       c9                             808  c3                             115 
    x35       Obj                            867  c7                              19 
    x35       c8                             781  c2                             206 
    x35       c1                             399  c0                             114 
    x35       c6                             910 
    x36       c6                             439  c2                             770 
    x36       c1                             886  c9                             400 
    x36       c7                             745  c8                             682 
    x36       Obj                            905  c5                             967 
    x36       c4                             816  c3                             130 
    x36       c0                             728 
    x37       c4                             756  c9                             458 
    x37       c8                             286  c6                             447 
    x37       c2                             522  c1                             967 
    x37       Obj                            812  c5                             820 
    x37       c7                             809  c0                             979 
    x37       c3                             962 
    x38       c0                             424  Obj                            493 
    x38       c2                             618  c4                             519 
    x38       c1                              66  c6                             203 
    x38       c9                             283  c7                             212 
    x38       c8                             448  c5                             663 
    x38       c3                             101 
    x39       c8                              52  c6                             928 
    x39       Obj                            708  c0                             791 
    x39       c5                             599  c1                             995 
    x39       c7                             513  c2                               2 
    x39       c9                             825  c4                             185 
    x39       c3                             824 
    x40       c3                             916  c9                             370 
    x40       c7                             838  c1                             317 
    x40       c4                             402  c2                              22 
    x40       c6                             378  c0                              83 
    x40       c8                             495  c5                             451 
    x40       Obj                            451 
    x41       Obj                            886  c0                             690 
    x41       c8                             913  c7                             988 
    x41       c4                             402  c1                             962 
    x41       c6                             895  c5                             383 
    x41       c2                             498  c9                             534 
    x41       c3                             599 
    x42       c8                             207  c0                             115 
    x42       c9                             680  c5                             559 
    x42       c7                             827  Obj                            637 
    x42       c3                             680  c6                             637 
    x42       c2                             421  c1                             764 
    x42       c4                             602 
    x43       c1                             329  c8                             222 
    x43       c0                             233  c9                             815 
    x43       c6                             464  c3                             891 
    x43       c4                             486  Obj                            817 
    x43       c5                             226  c2                             916 
    x43       c7                             962 
    x44       c7                             679  Obj                            644 
    x44       c8                             675  c1                             402 
    x44       c2                             787  c0                             309 
    x44       c9                             760  c3                              74 
    x44       c6                             625  c4                             353 
    x44       c5                              94 
    x45       c5                             118  Obj                            589 
    x45       c1                             584  c2                             663 
    x45       c0                             785  c7                             799 
    x45       c4                             938  c9                             116 
    x45       c8                              75  c3                              44 
    x45       c6                             827 
    x46       c8                             416  c3                             922 
    x46       c6                              51  c5                             114 
    x46       c7                             731  c1                             724 
    x46       c2                             347  c9                             617 
    x46       c0                             370  c4                             859 
    x46       Obj                            594 
    x47       c3                             706  c1                             199 
    x47       c2                             739  c0                             409 
    x47       c4                             991  c6                             635 
    x47       c9                             448  c8                             353 
    x47       c5                              35  Obj                            809 
    x47       c7                             165 
    x48       c8                             771  Obj                            975 
    x48       c6                             633  c4                             302 
    x48       c2                             928  c9                             649 
    x48       c7                             449  c0                             861 
    x48       c5                             651  c3                             687 
    x48       c1                             876 
    x49       c5                             843  c7                             183 
    x49       c3                             391  c0                              60 
    x49       c1                             204  c8                             449 
    x49       c9                             204  c4                             528 
    x49       c2                             554  Obj                            810 
    x49       c6                             982 
    x50       c3                             239  c8                             265 
    x50       c9                             394  c4                             482 
    x50       c2                             544  c7                             781 
    x50       c5                             922  c6                             962 
    x50       Obj                            917  c0                             746 
    x50       c1                             641 
    x51       c6                             797  c8                             639 
    x51       c2                             908  c7                             923 
    x51       c4                             529  c1                             266 
    x51       c3                             897  c0                             706 
    x51       c9                             477  c5                             455 
    x51       Obj                            795 
    x52       c3                             250  c8                             468 
    x52       c5                             108  c2                             149 
    x52       c7                             622  c6                             931 
    x52       c1                             747  c4                             748 
    x52       c0                             392  c9                             384 
    x52       Obj                            961 
    x53       c5                             493  c2                             344 
    x53       c6                             321  c0                             638 
    x53       c7                             588  c1                             676 
    x53       c4                             164  c3                             108 
    x53       Obj                            929  c9                             636 
    x53       c8                             674 
    x54       c1                             498  c8                             658 
    x54       c3                             997  c6                             237 
    x54       c5                             185  c0                             408 
    x54       c9                             826  Obj                            605 
    x54       c7                             160  c4                             966 
    x54       c2                             868 
    x55       c5                             702  c4                             700 
    x55       c9                             230  Obj                            915 
    x55       c6                             862  c0                             295 
    x55       c7                             998  c1                             715 
    x55       c2                             208  c8                             409 
    x55       c3                              66 
    x56       Obj                            878  c4                             625 
    x56       c3                             899  c5                              50 
    x56       c8                             951  c0                             388 
    x56       c2                             953  c9                             323 
    x56       c1                             661  c7                             770 
    x56       c6                             912 
    x57       c6                             126  c5                             971 
    x57       c9                             123  c1                             411 
    x57       c8                             713  Obj                            655 
    x57       c2                             705  c3                             470 
    x57       c7                             861  c4                             299 
    x57       c0                             250 
    x58       c8                             737  c9                             597 
    x58       c0                             930  c4                             801 
    x58       Obj                            719  c3                             209 
    x58       c2                             564  c1                             944 
    x58       c5                             514  c6                             774 
    x58       c7                             308 
    x59       c5                             328  c3                             477 
    x59       c7                             932  c6                             428 
    x59       c9                             546  c1                             547 
    x59       c4                             673  c2                             903 
    x59       c8                             941  c0                             727 
    x59       Obj                           1084 
    x60       c6                             922  c1                              36 
    x60       c5                             618  c9                               9 
    x60       c8                             712  c0                              61 
    x60       c2                              81  c4                             421 
    x60       Obj                            785  c7                             324 
    x60       c3                             848 
    x61       c6                             245  c5                              53 
    x61       c2                             153  Obj                            891 
    x61       c9                             528  c8                             268 
    x61       c7                             562  c4                             931 
    x61       c3                             466  c1                             640 
    x61       c0                             994 
    x62       c2                             475  c6                             849 
    x62       c9                             109  c0                             397 
    x62       c5                             995  c8                             568 
    x62       c7                             357  c4                             603 
    x62       Obj                            615  c1                             429 
    x62       c3                             627 
    x63       Obj                            681  c4                             844 
    x63       c6                             430  c7                              34 
    x63       c2                              15  c8                             303 
    x63       c5                              42  c3                             781 
    x63       c9                             140  c0                             667 
    x63       c1                             344 
    x64       c2                             208  c7                             997 
    x64       c5                             214  c6                             903 
    x64       c9                             983  c8                              60 
    x64       c1                             958  c0                             963 
    x64       c3                             117  Obj                            721 
    x64       c4                             484 
    x65       c4                             226  c8                             486 
    x65       Obj                            771  c2                              64 
    x65       c3                              19  c6                             239 
    x65       c5                             554  c7                             616 
    x65       c1                             996  c9                              24 
    x65       c0                             866 
    x66       Obj                            599  c2                              54 
    x66       c6                             335  c9                             183 
    x66       c3                             992  c1                             546 
    x66       c5                             279  c7                             956 
    x66       c0                             490  c4                             360 
    x66       c8                              95 
    x67       c8                              41  c3                             752 
    x67       c7                             817  c5                             110 
    x67       c2                             307  c9                             511 
    x67       Obj                            681  c1                             372 
    x67       c4                             463  c0                             131 
    x67       c6                             980 
    x68       c7                              11  Obj                            690 
    x68       c9                             313  c0                             345 
    x68       c1                             211  c2                             898 
    x68       c6                             948  c4                             619 
    x68       c5                             159  c8                              77 
    x68       c3                             630 
    x69       c7                             503  c3                             508 
    x69       c0                             729  c1                             494 
    x69       c4                             299  c8                             348 
    x69       c5                             504  c9                             544 
    x69       Obj                            721  c6                             398 
    x69       c2                             601 
    x70       c7                              60  c6                             575 
    x70       c3                             211  c5                             965 
    x70       c8                              97  c2                             666 
    x70       c9                             782  Obj                            693 
    x70       c4                             560  c0                             775 
    x70       c1                             658 
    x71       c4                             308  c8                             602 
    x71       c3                             756  c0                             196 
    x71       c1                             202  c7                             545 
    x71       c6                             327  Obj                            826 
    x71       c5                             763  c2                             292 
    x71       c9                             840 
    x72       c0                             199  c3                             876 
    x72       Obj                            709  c1                             980 
    x72       c8                             247  c7                             490 
    x72       c5                             555  c2                             943 
    x72       c6                             869  c4                             405 
    x72       c9                             297 
    x73       c7                             194  c2                              93 
    x73       Obj                            694  c9                             673 
    x73       c1                             367  c3                             314 
    x73       c5                             168  c8                             914 
    x73       c6                             745  c0                             861 
    x73       c4                              53 
    x74       c2                             382  c5                             739 
    x74       c7                             721  c6                             405 
    x74       c8                             167  c9                             731 
    x74       Obj                            803  c0                             127 
    x74       c3                             451  c4                             425 
    x74       c1                             407 
    x75       c6                             572  c7                             944 
    x75       c5                             202  c9                             398 
    x75       c8                             408  c2                             728 
    x75       Obj                            940  c4                             344 
    x75       c1                             760  c3                             721 
    x75       c0                             235 
    x76       Obj                            712  c5                             714 
    x76       c7                             751  c4                             498 
    x76       c2                             567  c6                             734 
    x76       c0                             266  c8                             840 
    x76       c9                             409  c3                             720 
    x76       c1                             920 
    x77       c1                             644  c5                              85 
    x77       c8                             139  c2                             446 
    x77       Obj                            650  c4                             260 
    x77       c3                             678  c9                             373 
    x77       c7                             123  c0                             483 
    x77       c6                             657 
    x78       c3                             770  c4                             255 
    x78       c8                             463  Obj                            671 
    x78       c6                             992  c2                             208 
    x78       c0                             961  c7                             137 
    x78       c9                             215  c1                             744 
    x78       c5                             872 
    x79       c5                             251  c9                             578 
    x79       c4                             400  c1                             163 
    x79       c8                             389  c0                             349 
    x79       c2                             100  c3                             355 
    x79       c6                             208  Obj                            582 
    x79       c7                              64 
    x80       c7                              44  c2                             329 
    x80       c6                             712  Obj                            371 
    x80       c5                             312  c9                             568 
    x80       c8                              41  c3                             147 
    x80       c0                             592  c4                             164 
    x80       c1                              37 
    x81       c3                             491  c8                              27 
    x81       c6                             261  c4                             492 
    x81       c0                             689  c9                             210 
    x81       Obj                            599  c1                              94 
    x81       c5                             153  c7                             149 
    x81       c2                             411 
    x82       c2                             705  c1                             119 
    x82       c0                             353  c8                             226 
    x82       c9                             118  c6                             884 
    x82       c3                             963  c7                             223 
    x82       c5                             876  c4                             391 
    x82       Obj                            590 
    x83       Obj                            909  c3                             708 
    x83       c8                             346  c5                             731 
    x83       c4                             917  c1                              94 
    x83       c2                             243  c7                             404 
    x83       c6                             451  c0                             822 
    x83       c9                             238 
    x84       c2                             556  c5                              91 
    x84       c4                             881  c7                             562 
    x84       c6                             508  Obj                            749 
    x84       c9                             398  c0                              86 
    x84       c1                             456  c8                             127 
    x84       c3                             905 
    x85       c0                             676  c5                             278 
    x85       c3                             868  c6                             701 
    x85       c7                             366  c8                             228 
    x85       Obj                            684  c9                             206 
    x85       c1                             379  c2                              70 
    x85       c4                             345 
    x86       c7                             292  Obj                            566 
    x86       c0                             201  c4                             303 
    x86       c1                             812  c3                             233 
    x86       c6                             412  c2                             664 
    x86       c8                             152  c9                             124 
    x86       c5                             944 
    x87       c0                             942  c7                             905 
    x87       c6                             892  Obj                           1168 
    x87       c2                             804  c9                             543 
    x87       c5                             646  c1                             360 
    x87       c4                             368  c3                             419 
    x87       c8                             806 
    x88       c2                             234  c1                             238 
    x88       c4                             919  c6                              81 
    x88       c5                             985  Obj                            950 
    x88       c3                             553  c8                             913 
    x88       c9                              47  c0                             933 
    x88       c7                             985 
    x89       c1                             147  c9                             749 
    x89       c2                              54  c7                             779 
    x89       c0                             416  c8                             554 
    x89       Obj                            992  c5                             884 
    x89       c6                             368  c4                              63 
    x89       c3                             987 
    x90       c7                             316  c3                             464 
    x90       Obj                            796  c6                             437 
    x90       c0                              21  c8                             668 
    x90       c1                             956  c2                             855 
    x90       c4                             805  c9                             268 
    x90       c5                             389 
    x91       c5                             892  c6                             655 
    x91       c0                             570  c4                              11 
    x91       c7                             172  c2                             812 
    x91       c9                             682  c8                             269 
    x91       Obj                            954  c1                             424 
    x91       c3                             871 
    x92       c0                             392  c4                             451 
    x92       c1                             750  c9                             210 
    x92       c8                             239  c6                             102 
    x92       c3                             301  c5                              17 
    x92       Obj                            701  c2                             895 
    x92       c7                             193 
    x93       c0                             731  c8                             871 
    x93       Obj                            768  c9                             314 
    x93       c4                             802  c1                             290 
    x93       c5                             248  c3                             440 
    x93       c6                             646  c7                             761 
    x93       c2                             309 
    x94       c0                             705  c9                              84 
    x94       Obj                            477  c4                              82 
    x94       c8                             743  c1                             519 
    x94       c6                             515  c7                             593 
    x94       c3                             764  c5                             565 
    x94       c2                             119 
    x95       Obj                            683  c1                             129 
    x95       c3                             810  c9                             656 
    x95       c4                             804  c0                             968 
    x95       c6                             833  c5                             973 
    x95       c8                             825  c2                             121 
    x95       c7                             352 
    x96       c8                             262  c3                             106 
    x96       c9                             463  c5                             126 
    x96       c4                             856  c0                             823 
    x96       c6                             383  c7                             575 
    x96       c2                             413  Obj                            706 
    x96       c1                             629 
    x97       c1                             632  c3                             344 
    x97       c4                             317  c9                              52 
    x97       c6                             341  c7                             892 
    x97       c0                             984  Obj                            940 
    x97       c2                              97  c8                             646 
    x97       c5                             631 
    x98       c6                             100  Obj                            633 
    x98       c2                             300  c9                             730 
    x98       c5                             147  c0                             675 
    x98       c7                             762  c4                             996 
    x98       c8                             678  c1                             452 
    x98       c3                             611 
    x99       c3                             389  c4                             211 
    x99       c5                             412  c2                             354 
    x99       c8                             265  Obj                            653 
    x99       c0                             377  c7                             956 
    x99       c6                              64  c1                             517 
    x99       c9                             737 
    INTEND    'MARKER'                            'INTEND'                           
RHS
    RHS       c0                           24258  c1                           24875 
    RHS       c2                           21839  c3                           25720 
    RHS       c4                           25411  c5                           24067 
    RHS       c6                           26371  c7                           26784 
    RHS       c8                           23226  c9                           20840 
BOUNDS
 BV Bound     x0                                 
 BV Bound     x1                                 
 BV Bound     x2                                 
 BV Bound     x3                                 
 BV Bound     x4                                 
 BV Bound     x5                                 
 BV Bound     x6                                 
 BV Bound     x7                                 
 BV Bound     x8                                 
 BV Bound     x9                                 
 BV Bound     x10                                
 BV Bound     x11                                
 BV Bound     x12                                
 BV Bound     x13                                
 BV Bound     x14                                
 BV Bound     x15                                
 BV Bound     x16                                
 BV Bound     x17                                
 BV Bound     x18                                
 BV Bound     x19                                
 BV Bound     x20                                
 BV Bound     x21                                
 BV Bound     x22                                
 BV Bound     x23                                
 BV Bound     x24                                
 BV Bound     x25                                
 BV Bound     x26                                
 BV Bound     x27                                
 BV Bound     x28                                
 BV Bound     x29                                
 BV Bound     x30                                
 BV Bound     x31                                
 BV Bound     x32                                
 BV Bound     x33                                
 BV Bound     x34                                
 BV Bound     x35                                
 BV Bound     x36                                
 BV Bound     x37                                
 BV Bound     x38                                
 BV Bound     x39                                
 BV Bound     x40                                
 BV Bound     x41                                
 BV Bound     x42                                
 BV Bound     x43                                
 BV Bound     x44                                
 BV Bound     x45                                
 BV Bound     x46                                
 BV Bound     x47                                
 BV Bound     x48                                
 BV Bound     x49                                
 BV Bound     x50                                
 BV Bound     x51                                
 BV Bound     x52                                
 BV Bound     x53                                
 BV Bound     x54                                
 BV Bound     x55                                
 BV Bound     x56                                
 BV Bound     x57                                
 BV Bound     x58                                
 BV Bound     x59                                
 BV Bound     x60                                
 BV Bound     x61                                
 BV Bound     x62                                
 BV Bound     x63                                
 BV Bound     x64                                
 BV Bound     x65                                
 BV Bound     x66                                
 BV Bound     x67                                
 BV Bound     x68                                
 BV Bound     x69                                
 BV Bound     x70                                
 BV Bound     x71                                
 BV Bound     x72                                
 BV Bound     x73                                
 BV Bound     x74                                
 BV Bound     x75                                
 BV Bound     x76                                
 BV Bound     x77                                
 BV Bound     x78                                
 BV Bound     x79                                
 BV Bound     x80                                
 BV Bound     x81                                
 BV Bound     x82                                
 BV Bound     x83                                
 BV Bound     x84                                
 BV Bound     x85                                
 BV Bound     x86                                
 BV Bound     x87                                
 BV Bound     x88                                
 BV Bound     x89                                
 BV Bound     x90                                
 BV Bound     x91                                
 BV Bound     x92                                
 BV Bound     x93                                
 BV Bound     x94                                
 BV Bound     x95                                
 BV Bound     x96                                
 BV Bound     x97                                
 BV Bound     x98                                
 BV Bound     x99                                
ENDATA