* SCIP STATISTICS
*   Problem name     : mknap_1
*   Variables        : 60 (60 binary, 0 integer, 0 implicit integer, 0 continuous)
*   Constraints      : 30
NAME          mknap_1
OBJSENSE
  MAX
ROWS
 N  Obj 
 L  c0 
 L  c1 
 L  c2 
 L  c3 
 L  c4 
 L  c5 
 L  c6 
 L  c7 
 L  c8 
 L  c9 
 L  c10 
 L  c11 
 L  c12 
 L  c13 
 L  c14 
 L  c15 
 L  c16 
 L  c17 
 L  c18 
 L  c19 
 L  c20 
 L  c21 
 L  c22 
 L  c23 
 L  c24 
 L  c25 
 L  c26 
 L  c27 
 L  c28 
 L  c29 
COLUMNS
    INTSTART  'MARKER'                            'INTORG'                           
    x0        Obj                              2  c25                             17 
    x0        c26                             65  c10                             11 
    x0        c3                              47  c16                            869 
    x0        c2                              36  c24                              9 
    x0        c4                              61  c15                            132 
    x0        c27                            468  c11                            410 
    x0        c9                              45  c7                              33 
    x0        c17                            494  c1                              73 
    x0        c23                             53  c20                             33 
    x0        c5                             698  c28                             23 
    x0        c18                            267  c14                            967 
    x0        c22                             47  c21                             19 
    x0        c0                              47  c6                              71 
    x0        c29                             35  c8                              16 
    x0        c19                            624  c13                            423 
    x0        c12                            553 
    x1        c12                             63  c18                            290 
    x1        c13                              6  c28                             93 
    x1        c5                              53  c20                             62 
    x1        c19                              7  c25                             36 
    x1        Obj                             77  c14                            654 
    x1        c8                              36  c26                             59 
    x1        c23                             12  c10                             51 
    x1        c3                             114  c22                             75 
    x1        c16                             26  c1                              67 
    x1        c17                              2  c29                             55 
    x1        c7                              27  c2                              42 
    x1        c9                              51  c21                            780 
    x1        c24                             19  c11                             89 
    x1        c6                              37  c27                             13 
    x1        c4                             720  c15                            900 
    x1        c0                             774 
    x2        c0                              76  c8                             538 
    x2        c4                               7  c15                             72 
    x2        c27                              9  c9                              59 
    x2        c7                              13  c6                             978 
    x2        c11                            414  c24                              7 
    x2        c21                            400  c26                              2 
    x2        c2                              56  c29                             21 
    x2        c23                             79  c1                              27 
    x2        c16                            710  c3                              26 
    x2        c10                             97  Obj                              6 
    x2        c14                             46  c17                             25 
    x2        c19                             96  c25                             77 
    x2        c5                             290  c22                             55 
    x2        c20                            928  c13                             58 
    x2        c28                             87  c12                             35 
    x2        c18                             31 
    x3        c18                            844  c20                            292 
    x3        c27                            120  c25                            843 
    x3        c13                             36  c12                             63 
    x3        c4                              31  c28                            490 
    x3        c0                              56  c19                             45 
    x3        c22                            554  c15                             51 
    x3        c5                               3  c9                              21 
    x3        c10                             26  c8                             210 
    x3        c6                              93  c11                             81 
    x3        Obj                             67  c24                            535 
    x3        c3                             668  c21                            588 
    x3        c26                            671  c17                             61 
    x3        c14                             69  c23                            481 
    x3        c2                              96  c7                              57 
    x3        c29                            264  c16                             37 
    x3        c1                              99 
    x4        c29                              5  c16                             81 
    x4        c2                             438  c20                              2 
    x4        c19                             97  c23                            218 
    x4        c13                             37  c17                            674 
    x4        c26                             26  c24                             75 
    x4        c21                             37  c3                              82 
    x4        Obj                            930  c11                            130 
    x4        c6                               9  c22                              3 
    x4        c15                             91  c8                             844 
    x4        c14                             26  c10                             83 
    x4        c9                              53  c5                              62 
    x4        c12                             98  c7                               6 
    x4        c18                             12  c0                              59 
    x4        c28                             32  c27                             73 
    x4        c25                            328  c4                              22 
    x4        c1                              35 
    x5        c0                              22  c25                             22 
    x5        c27                              7  c5                              37 
    x5        c4                              82  c28                             63 
    x5        c10                            426  c18                            570 
    x5        c9                              43  c8                             520 
    x5        c15                            150  c7                              87 
    x5        c14                            769  c6                              23 
    x5        c22                            800  c11                            491 
    x5        c29                             35  c24                              3 
    x5        c17                            638  c3                              43 
    x5        Obj                              3  c26                            364 
    x5        c21                             86  c19                            148 
    x5        c13                            321  c20                            340 
    x5        c23                             26  c12                            402 
    x5        c1                             794  c16                             89 
    x5        c2                              49 
    x6        c2                              57  c1                              53 
    x6        c21                             23  c8                              33 
    x6        Obj                              6  c23                            624 
    x6        c26                            854  c3                              55 
    x6        c16                              6  c24                             27 
    x6        c15                             22  c11                              6 
    x6        c19                             91  c29                             92 
    x6        c17                             61  c22                              6 
    x6        c13                             22  c20                            278 
    x6        c7                              21  c14                             82 
    x6        c6                              47  c12                            664 
    x6        c9                              25  c18                             13 
    x6        c4                             688  c28                            870 
    x6        c27                             92  c5                             704 
    x6        c0                              42  c25                             76 
    x6        c10                             92 
    x7        c10                             39  c4                              19 
    x7        c27                             99  c19                              3 
    x7        c21                            583  c5                             810 
    x7        c0                               1  Obj                            270 
    x7        c9                               7  c25                            368 
    x7        c7                              12  c13                             26 
    x7        c28                            393  c29                            128 
    x7        c20                            911  c24                            928 
    x7        c6                              71  c23                            954 
    x7        c16                             82  c12                             85 
    x7        c22                             13  c26                            526 
    x7        c2                              16  c14                             89 
    x7        c1                             378  c8                              73 
    x7        c15                            110  c11                            238 
    x7        c17                             59  c18                             69 
    x7        c3                              55 
    x8        c3                              56  c4                              82 
    x8        c27                             93  c17                             62 
    x8        c18                             65  c5                              42 
    x8        c12                            458  c21                            518 
    x8        c8                             100  c15                            154 
    x8        Obj                             33  c0                              21 
    x8        c2                             978  c28                             52 
    x8        c22                             85  c11                             79 
    x8        c16                             82  c9                              42 
    x8        c1                             234  c25                             39 
    x8        c10                             66  c7                              15 
    x8        c13                             16  c6                             744 
    x8        c29                             65  c14                             15 
    x8        c23                             13  c19                             69 
    x8        c26                            570  c24                             21 
    x8        c20                            818 
    x9        c24                              7  c26                            630 
    x9        c23                            580  c29                             27 
    x9        c20                            770  c28                             23 
    x9        c10                              2  c7                             290 
    x9        c6                               9  c11                             43 
    x9        c13                             27  c14                             87 
    x9        c27                            418  c1                              32 
    x9        c21                             42  c9                              27 
    x9        c16                             56  c25                             71 
    x9        c22                             65  c2                               9 
    x9        c0                             760  c15                            148 
    x9        Obj                             13  c8                             284 
    x9        c19                             26  c12                            834 
    x9        c18                            848  c17                            690 
    x9        c5                              17  c3                              27 
    x9        c4                             654 
    x10       c4                             809  c5                             983 
    x10       c12                              3  c0                             818 
    x10       c9                             310  Obj                            110 
    x10       c25                             35  c10                             23 
    x10       c28                             63  c14                             46 
    x10       c13                            218  c11                              5 
    x10       c20                            464  c21                             56 
    x10       c18                             72  c26                             33 
    x10       c22                             99  c23                            130 
    x10       c24                            864  c15                             99 
    x10       c6                             619  c19                             22 
    x10       c1                             792  c17                            630 
    x10       c16                             96  c2                             644 
    x10       c27                            224  c3                             716 
    x10       c29                              9  c8                             650 
    x10       c7                             206 
    x11       c6                              32  c2                             584 
    x11       c29                             52  c3                               7 
    x11       c27                             22  c16                             66 
    x11       c17                             86  c8                              85 
    x11       c7                             420  c1                              97 
    x11       c24                             27  c22                             45 
    x11       c23                            608  c15                             75 
    x11       c21                              1  c18                            780 
    x11       c20                             53  Obj                             21 
    x11       c26                            654  c11                            288 
    x11       c19                             45  c28                            634 
    x11       c14                             59  c10                             93 
    x11       c13                            530  c9                              45 
    x11       c25                            850  c0                              62 
    x11       c12                             62  c4                              99 
    x11       c5                              11 
    x12       c5                              45  c25                             96 
    x12       c10                             85  c7                              32 
    x12       c17                            198  c20                            888 
    x12       c12                            508  c19                             42 
    x12       c18                             27  c15                             21 
    x12       c3                              77  c28                             39 
    x12       c29                             66  c6                             214 
    x12       c11                            910  c22                             69 
    x12       c2                              82  c16                             46 
    x12       c24                             73  c26                             95 
    x12       c9                              72  c8                             894 
    x12       c23                              3  Obj                             56 
    x12       c0                              42  c14                             22 
    x12       c27                              7  c13                             93 
    x12       c1                              64  c4                              81 
    x12       c21                            108 
    x13       c21                             83  c1                              19 
    x13       c25                             93  c5                              56 
    x13       c4                              97  c10                            660 
    x13       c13                             55  c27                             29 
    x13       c7                             880  c0                              36 
    x13       c19                              2  c14                            840 
    x13       c17                             24  Obj                            974 
    x13       c23                             37  c20                             55 
    x13       c8                               2  c9                              53 
    x13       c12                              7  c29                             51 
    x13       c18                             96  c26                             41 
    x13       c15                            544  c2                             550 
    x13       c24                             61  c11                            204 
    x13       c16                             13  c28                             83 
    x13       c22                             73  c3                              26 
    x13       c6                              31 
    x14       c6                             796  Obj                             47 
    x14       c3                             950  c28                             12 
    x14       c13                             89  c24                             25 
    x14       c22                            864  c2                             283 
    x14       c11                            948  c8                             206 
    x14       c19                             75  c26                             42 
    x14       c18                             97  c12                              1 
    x14       c16                            934  c29                              7 
    x14       c9                             798  c15                            110 
    x14       c17                             15  c20                             76 
    x14       c23                             91  c14                             66 
    x14       c27                             57  c0                             785 
    x14       c10                             85  c21                             43 
    x14       c5                             234  c4                             830 
    x14       c1                             435  c25                             87 
    x14       c7                             854 
    x15       c20                             31  c29                             47 
    x15       c18                             17  c12                             72 
    x15       Obj                            734  c6                             103 
    x15       c0                              29  c21                            720 
    x15       c8                             637  c13                             71 
    x15       c28                             72  c17                            650 
    x15       c5                             389  c19                             76 
    x15       c11                             19  c22                             95 
    x15       c27                             33  c1                             712 
    x15       c4                             826  c14                             35 
    x15       c26                             27  c23                             78 
    x15       c9                             304  c16                             49 
    x15       c24                             75  c3                             320 
    x15       c2                             340  c15                             11 
    x15       c10                            774  c25                             56 
    x15       c7                             417 
    x16       c7                             770  c8                             324 
    x16       c3                             350  c27                            949 
    x16       c1                             837  c15                             52 
    x16       c14                            684  c24                            876 
    x16       c0                             662  c12                             88 
    x16       c19                             96  c21                            570 
    x16       c25                            972  c16                            394 
    x16       c17                             75  c11                            644 
    x16       c10                             77  c13                            828 
    x16       c6                             593  c5                             712 
    x16       c20                            389  c22                            199 
    x16       Obj                            238  c9                             354 
    x16       c28                            131  c23                            743 
    x16       c29                            670  c4                             775 
    x16       c26                            584  c18                             69 
    x16       c2                             596 
    x17       c2                             788  c18                            274 
    x17       c4                              72  c29                             83 
    x17       c28                             69  c23                              1 
    x17       Obj                             75  c9                              79 
    x17       c26                             17  c22                            924 
    x17       c20                             40  c10                             77 
    x17       c5                             664  c6                              16 
    x17       c13                             75  c11                             21 
    x17       c25                             96  c16                             72 
    x17       c17                             25  c19                             67 
    x17       c21                             81  c14                             57 
    x17       c0                              49  c24                             16 
    x17       c12                             45  c1                              22 
    x17       c15                            840  c27                             65 
    x17       c3                              95  c7                               4 
    x17       c8                             318 
    x18       c8                               7  c22                             19 
    x18       c7                              12  c9                              45 
    x18       c27                             92  c20                            864 
    x18       c1                             504  c12                            496 
    x18       c10                            927  c13                            628 
    x18       c3                             714  c23                            950 
    x18       c25                            594  c15                            201 
    x18       c4                               9  c21                            674 
    x18       c14                            254  c0                             608 
    x18       c2                              33  c24                             92 
    x18       c18                            616  c17                            571 
    x18       Obj                            200  c29                             76 
    x18       c16                            194  c5                              59 
    x18       c6                             468  c26                            724 
    x18       c28                            984  c11                            295 
    x18       c19                            688 
    x19       c22                            948  c8                             566 
    x19       c19                              2  c26                             59 
    x19       c6                             700  c11                             11 
    x19       c5                              15  c29                              7 
    x19       c16                            408  c28                             87 
    x19       c17                            338  c18                             36 
    x19       c24                             22  c2                             350 
    x19       c14                            230  c4                             719 
    x19       c21                             25  c15                              2 
    x19       c25                            864  Obj                             51 
    x19       c13                             67  c3                             789 
    x19       c23                             45  c0                             116 
    x19       c1                             332  c7                             952 
    x19       c10                            868  c20                             36 
    x19       c27                            898  c12                             43 
    x19       c9                              44 
    x20       c9                              52  c10                              7 
    x20       c2                              55  c23                             41 
    x20       c25                            344  c13                             66 
    x20       c0                             834  c18                            554 
    x20       c4                             740  c16                              5 
    x20       c20                             35  c11                              6 
    x20       c19                              2  c26                             42 
    x20       c22                            214  Obj                             47 
    x20       c6                             884  c12                            750 
    x20       c17                            268  c14                             21 
    x20       c24                            248  c28                             86 
    x20       c7                             604  c5                              22 
    x20       c21                             96  c3                             430 
    x20       c29                             79  c1                              13 
    x20       c27                            200  c8                              46 
    x20       c15                              6 
    x21       c11                            595  c6                              67 
    x21       c12                            222  c15                            663 
    x21       c20                             37  c3                              97 
    x21       c27                             57  c21                            218 
    x21       c18                            236  Obj                             63 
    x21       c24                             11  c8                             818 
    x21       c1                              65  c28                             99 
    x21       c0                              57  c7                              13 
    x21       c16                            541  c29                             37 
    x21       c5                              91  c17                            958 
    x21       c25                             76  c14                            586 
    x21       c26                             26  c22                              3 
    x21       c19                            224  c13                            622 
    x21       c4                             860  c9                              76 
    x21       c23                            718  c2                              59 
    x21       c10                            554 
    x22       c10                            760  c11                            904 
    x22       c19                             83  c6                              36 
    x22       c20                             69  c15                             22 
    x22       Obj                              7  c2                             348 
    x22       c23                             36  c27                             12 
    x22       c9                              45  c4                              72 
    x22       c3                             590  c12                             96 
    x22       c21                              6  c13                            440 
    x22       c28                             52  c22                            718 
    x22       c24                             86  c8                              92 
    x22       c29                              2  c0                              42 
    x22       c1                              86  c14                             51 
    x22       c25                             17  c7                              96 
    x22       c17                             95  c5                              57 
    x22       c16                             88  c18                             47 
    x22       c26                            918 
    x23       c26                              6  c16                             93 
    x23       c18                              7  c17                            898 
    x23       Obj                              6  c1                              29 
    x23       c14                             19  c24                            944 
    x23       c5                             784  c13                             91 
    x23       c0                              39  c8                              65 
    x23       c25                             17  c7                             910 
    x23       c22                             56  c21                             69 
    x23       c9                              26  c3                              32 
    x23       c4                              30  c23                             30 
    x23       c27                             31  c2                              66 
    x23       c12                             31  c20                             95 
    x23       c29                             46  c15                             20 
    x23       c19                             69  c6                               3 
    x23       c28                            110  c10                            104 
    x23       c11                             67 
    x24       c11                             51  c6                              93 
    x24       c20                             22  c27                            296 
    x24       c21                            107  c0                             994 
    x24       c8                             520  c5                              75 
    x24       c1                             894  c26                            242 
    x24       c17                             56  c13                             73 
    x24       c14                            984  c22                            278 
    x24       c4                              82  c18                             47 
    x24       c16                             36  c2                             468 
    x24       c19                             41  c29                            480 
    x24       c10                             48  Obj                            468 
    x24       c12                            278  c7                              34 
    x24       c25                            576  c9                              27 
    x24       c23                            534  c24                            872 
    x24       c3                              69  c15                             89 
    x24       c28                            183 
    x25       c28                            704  c13                            790 
    x25       c0                             690  c11                            703 
    x25       c27                            185  c1                             266 
    x25       c26                            356  c14                            156 
    x25       c2                             983  c10                            202 
    x25       c29                            608  Obj                             72 
    x25       c25                            629  c24                            996 
    x25       c15                             10  c3                             264 
    x25       c23                            418  c9                             968 
    x25       c16                            398  c4                             112 
    x25       c22                              1  c17                            585 
    x25       c5                             719  c8                             721 
    x25       c21                            534  c20                            648 
    x25       c6                              71  c18                            134 
    x25       c19                            660  c7                             460 
    x25       c12                            184 
    x26       c12                             36  Obj                             95 
    x26       c9                              86  c3                              19 
    x26       c8                              90  c10                             45 
    x26       c17                             99  c27                            272 
    x26       c14                             23  c6                             734 
    x26       c20                            334  c16                            508 
    x26       c24                            252  c22                            363 
    x26       c26                             75  c15                             93 
    x26       c18                             76  c4                              66 
    x26       c5                             294  c19                             81 
    x26       c23                            452  c21                            158 
    x26       c7                              76  c25                            780 
    x26       c0                              27  c28                            232 
    x26       c11                            430  c2                               6 
    x26       c1                              75  c29                            990 
    x26       c13                            710 
    x27       c12                              7  c11                             95 
    x27       c29                             53  c28                            674 
    x27       c2                              33  c1                              16 
    x27       c21                             56  c16                             89 
    x27       c25                            640  c7                              16 
    x27       c23                            359  c0                             524 
    x27       c5                             978  c19                             89 
    x27       c24                              2  c14                            748 
    x27       c4                             638  c18                             62 
    x27       c15                            964  c26                            644 
    x27       c22                             86  c20                             14 
    x27       c6                             504  c17                             83 
    x27       c10                             75  c8                              53 
    x27       c3                              51  c27                             91 
    x27       c9                              16  Obj                             82 
    x27       c13                             59 
    x28       c13                             83  c9                              62 
    x28       c27                             77  c8                             174 
    x28       c22                              1  c4                             150 
    x28       c18                            824  c14                            760 
    x28       c5                              75  c2                              42 
    x28       c23                            759  c21                              5 
    x28       c16                             66  c24                            800 
    x28       c25                             56  Obj                             91 
    x28       c11                            408  c28                            384 
    x28       c29                             47  c1                              86 
    x28       c7                             140  c15                            924 
    x28       c0                              23  c19                             93 
    x28       c20                            198  c17                             21 
    x28       c6                              81  c26                            818 
    x28       c10                             51  c12                            210 
    x28       c3                              97 
    x29       c3                              33  c10                             55 
    x29       c12                             55  c0                              96 
    x29       c26                            168  c11                             89 
    x29       c28                             47  c6                              53 
    x29       c17                            600  c20                             42 
    x29       c24                            334  c19                             27 
    x29       c15                             73  c16                             16 
    x29       c1                              91  c23                             88 
    x29       c4                              13  c29                             19 
    x29       Obj                             83  c13                            968 
    x29       c9                              85  c7                             100 
    x29       c25                             65  c27                             37 
    x29       c21                            938  c8                              43 
    x29       c5                              86  c22                             22 
    x29       c18                             55  c2                              96 
    x29       c14                             65 
    x30       c14                            339  c2                             464 
    x30       c18                            374  c22                             56 
    x30       c21                              9  c8                             320 
    x30       c7                             876  c27                            734 
    x30       c25                             43  c9                             790 
    x30       Obj                             27  c13                            129 
    x30       c4                             586  c29                             35 
    x30       c23                             29  c1                              67 
    x30       c15                            501  c16                             71 
    x30       c5                             105  c24                             93 
    x30       c19                            214  c20                             73 
    x30       c17                            462  c28                            804 
    x30       c11                             11  c26                            964 
    x30       c6                             509  c12                            653 
    x30       c0                             667  c3                             571 
    x30       c10                            716 
    x31       c16                            466  c19                            458 
    x31       c17                            940  c4                             590 
    x31       c8                             812  c13                            632 
    x31       c28                             99  c27                            911 
    x31       c9                             208  c10                            752 
    x31       c26                             12  c24                            107 
    x31       c11                            495  c0                             490 
    x31       c23                            499  c18                            471 
    x31       c3                             388  c2                             175 
    x31       c14                            892  c25                            196 
    x31       c5                             227  c22                            114 
    x31       c6                             114  c12                             51 
    x31       c21                            938  c20                            594 
    x31       c29                            518  Obj                             13 
    x31       c7                             622  c1                             445 
    x31       c15                            398 
    x32       c15                              3  c16                              7 
    x32       c1                             118  Obj                              6 
    x32       c19                             66  c4                             519 
    x32       c17                             96  c29                             71 
    x32       c18                            478  c28                             83 
    x32       c21                            274  c7                             559 
    x32       c20                             95  c13                            170 
    x32       c12                             35  c27                             27 
    x32       c10                             37  c9                             390 
    x32       c24                            254  c25                            520 
    x32       c6                             293  c23                             55 
    x32       c22                             13  c26                             97 
    x32       c5                             760  c3                             602 
    x32       c11                            844  c14                             13 
    x32       c0                             805  c8                             382 
    x32       c2                              33 
    x33       c2                              97  c0                              46 
    x33       c6                              31  c11                             13 
    x33       c14                             13  c26                            178 
    x33       c3                             140  c5                               2 
    x33       Obj                             76  c22                             53 
    x33       c25                             86  c24                            441 
    x33       c13                             67  c9                              36 
    x33       c23                            974  c8                              16 
    x33       c10                             95  c21                             76 
    x33       c27                            310  c20                             32 
    x33       c28                             81  c29                             59 
    x33       c18                            504  c12                             37 
    x33       c7                              39  c4                               2 
    x33       c19                             72  c1                              73 
    x33       c17                            464  c15                              2 
    x33       c16                             95 
    x34       c16                            464  c17                            228 
    x34       c19                            384  c4                             320 
    x34       c18                            496  c10                            267 
    x34       c26                            634  c27                             59 
    x34       c9                              62  c6                              75 
    x34       c13                            613  c21                            298 
    x34       c8                             878  c24                            930 
    x34       c1                              97  c11                            417 
    x34       c15                            279  c5                             190 
    x34       Obj                             55  c7                             640 
    x34       c23                             93  c28                            174 
    x34       c22                             56  c12                            393 
    x34       c29                             32  c25                             92 
    x34       c0                              19  c2                              15 
    x34       c14                            327  c20                            814 
    x34       c3                              15 
    x35       c3                              85  c14                             65 
    x35       c0                              26  c25                             31 
    x35       c29                             87  c2                              22 
    x35       c12                              2  c7                              59 
    x35       c22                             19  c20                             45 
    x35       Obj                             72  c23                             56 
    x35       c28                             99  c15                              5 
    x35       c11                            570  c9                              83 
    x35       c1                             370  c8                             678 
    x35       c24                            744  c13                            608 
    x35       c5                               3  c21                              9 
    x35       c26                             21  c27                             33 
    x35       c19                             59  c10                             91 
    x35       c6                              59  c4                              13 
    x35       c18                            754  c16                             41 
    x35       c17                             93 
    x36       c17                             72  c18                            604 
    x36       c8                              29  c6                              99 
    x36       c23                            108  c10                              5 
    x36       c26                              3  c3                              42 
    x36       c0                              97  c21                            518 
    x36       c7                               6  c28                             77 
    x36       c1                              88  c13                             43 
    x36       c24                             97  c15                            288 
    x36       c5                              71  c12                             49 
    x36       c29                             96  c25                              6 
    x36       c14                             35  c16                             69 
    x36       c2                               9  c27                             87 
    x36       c19                             76  c9                              93 
    x36       c22                             82  c11                              9 
    x36       Obj                            300  c20                             45 
    x36       c4                             964 
    x37       c4                             754  c20                            515 
    x37       c19                            538  c11                            429 
    x37       c22                             88  c9                              16 
    x37       c2                             554  c27                            872 
    x37       c16                            130  c14                            246 
    x37       c29                            240  c25                            593 
    x37       c12                            884  c5                              32 
    x37       c15                             80  c24                            177 
    x37       c1                              85  c13                             71 
    x37       c26                            586  c7                             244 
    x37       c28                            708  c0                              71 
    x37       c21                            571  Obj                              6 
    x37       c3                              66  c23                            257 
    x37       c10                            956  c8                              92 
    x37       c6                              11  c17                            734 
    x37       c18                            923 
    x38       c18                            330  c6                              67 
    x38       c10                            444  c26                             47 
    x38       c1                             165  c15                             91 
    x38       Obj                             65  c12                            418 
    x38       c25                            174  c14                             71 
    x38       c21                             47  c2                             358 
    x38       c28                              7  c20                            634 
    x38       c19                             15  c4                              70 
    x38       c9                             574  c27                             73 
    x38       c22                             99  c16                            488 
    x38       c29                             52  c11                             16 
    x38       c5                             210  c7                             232 
    x38       c13                            730  c24                            498 
    x38       c0                             699  c3                             778 
    x38       c23                             93  c17                             89 
    x38       c8                             755 
    x39       c8                             827  c19                            840 
    x39       c17                            287  c23                            171 
    x39       c18                             22  c6                             306 
    x39       c3                             936  c10                            529 
    x39       c26                            382  c0                             465 
    x39       c1                             268  c13                            910 
    x39       c24                            931  Obj                             39 
    x39       c7                             513  c5                             678 
    x39       c15                            132  c14                            178 
    x39       c16                            695  c12                            379 
    x39       c29                            310  c25                            569 
    x39       c22                            543  c21                            175 
    x39       c27                             79  c11                            939 
    x39       c28                            623  c2                             587 
    x39       c9                             150  c4                             241 
    x39       c20                            254 
    x40       c19                             65  c20                             42 
    x40       c8                              27  c7                             644 
    x40       c11                            430  c9                              99 
    x40       c2                              71  c27                            920 
    x40       c21                             63  c29                             86 
    x40       c25                             89  c12                             75 
    x40       c22                            674  c28                            114 
    x40       c16                             82  c14                             83 
    x40       c15                            620  c5                              41 
    x40       c24                            694  c1                             758 
    x40       c0                              53  Obj                             63 
    x40       c26                            804  c13                             36 
    x40       c4                              72  c18                             97 
    x40       c17                            174  c6                              96 
    x40       c3                              61  c23                             13 
    x40       c10                             96 
    x41       c6                             218  c20                             29 
    x41       c26                             89  c21                             93 
    x41       c5                              93  c22                            704 
    x41       c24                            800  c16                             39 
    x41       c10                             99  c25                            718 
    x41       c13                             92  c11                            270 
    x41       c1                              21  c29                             73 
    x41       c12                            338  c2                              23 
    x41       c28                              1  c14                              3 
    x41       c9                               7  c23                             92 
    x41       c15                            628  Obj                             61 
    x41       c3                              23  c0                              26 
    x41       c17                             62  c8                             218 
    x41       c7                               7  c27                             85 
    x41       c4                              12  c19                             63 
    x41       c18                              6 
    x42       c20                             15  c27                             59 
    x42       c21                             49  c19                             77 
    x42       c8                             143  c7                             813 
    x42       c2                             931  c4                             996 
    x42       c0                             123  c16                             95 
    x42       c17                             51  c14                             34 
    x42       Obj                             52  c9                             920 
    x42       c15                             57  c3                             449 
    x42       c28                            750  c10                             17 
    x42       c12                             51  c18                              2 
    x42       c1                             255  c29                             52 
    x42       c13                            950  c11                             49 
    x42       c24                              9  c25                             83 
    x42       c23                             63  c22                            418 
    x42       c6                             845  c26                            194 
    x42       c5                              47 
    x43       c5                             581  c3                             973 
    x43       c11                             72  c13                            138 
    x43       c26                             21  c1                              81 
    x43       c28                             49  c9                             860 
    x43       c17                             73  c4                             868 
    x43       c0                              20  c18                             16 
    x43       Obj                             85  c2                             931 
    x43       c14                            624  c27                             72 
    x43       c20                             83  c19                             33 
    x43       c16                             53  c8                              12 
    x43       c7                             624  c25                              8 
    x43       c10                             99  c12                             21 
    x43       c24                             36  c29                             31 
    x43       c23                            714  c15                             79 
    x43       c22                            670  c6                             303 
    x43       c21                             94 
    x44       c21                             42  c22                            554 
    x44       c23                              9  c0                              25 
    x44       c24                              6  c29                             83 
    x44       c10                             62  c12                             29 
    x44       c27                            888  c14                            788 
    x44       c25                            790  c15                              2 
    x44       c2                              94  c9                              12 
    x44       c16                             37  c7                             990 
    x44       c8                              57  c18                             14 
    x44       c19                             92  c20                             55 
    x44       c26                            610  c13                             23 
    x44       c5                              37  Obj                             29 
    x44       c3                             828  c11                             65 
    x44       c4                              36  c17                             42 
    x44       c1                               5  c28                            284 
    x44       c6                               3 
    x45       c1                             774  c28                            492 
    x45       c3                              33  c4                              91 
    x45       c11                             66  Obj                            640 
    x45       c5                             977  c20                            176 
    x45       c13                             95  c16                            200 
    x45       c19                             32  c18                            958 
    x45       c26                            168  c7                             274 
    x45       c27                             49  c9                             404 
    x45       c8                             480  c12                             95 
    x45       c15                            874  c2                             798 
    x45       c25                            285  c14                            200 
    x45       c10                              7  c24                            539 
    x45       c29                            544  c0                             450 
    x45       c23                             84  c6                             319 
    x45       c21                             26  c17                            838 
    x45       c22                            282 
    x46       c22                              5  c27                             12 
    x46       c25                            780  c23                            890 
    x46       c15                             36  c6                              86 
    x46       c29                             16  c9                              31 
    x46       c12                            790  c7                             808 
    x46       c4                              79  c8                             154 
    x46       c19                             35  c1                              39 
    x46       c26                             79  c20                             35 
    x46       Obj                            558  c14                            980 
    x46       c2                              73  c28                             11 
    x46       c17                             82  c24                             35 
    x46       c11                            338  c0                              22 
    x46       c3                              53  c21                             79 
    x46       c18                             53  c5                              62 
    x46       c10                            394  c13                            460 
    x46       c16                             87 
    x47       c27                             79  c22                             67 
    x47       c16                             56  c8                             944 
    x47       c13                             62  c10                            580 
    x47       c18                            480  c3                             297 
    x47       c21                             50  c5                             503 
    x47       c0                             979  c17                            515 
    x47       c24                             79  c11                            994 
    x47       c2                             873  c28                             61 
    x47       Obj                             53  c14                            882 
    x47       c20                             46  c26                             96 
    x47       c1                             377  c19                            832 
    x47       c12                            846  c4                             221 
    x47       c7                             372  c9                             560 
    x47       c29                             15  c6                             724 
    x47       c15                            497  c25                             62 
    x47       c23                             16 
    x48       c23                            930  c18                            482 
    x48       c21                            718  c0                              75 
    x48       c10                            604  c14                            343 
    x48       c26                             87  c27                            538 
    x48       c13                            189  c4                              49 
    x48       c1                              18  c7                               2 
    x48       c17                            232  c6                              22 
    x48       c3                              75  c5                              32 
    x48       c25                            378  c22                             63 
    x48       c8                               7  c15                            846 
    x48       c11                            167  c28                              6 
    x48       c9                              37  Obj                             47 
    x48       c2                              22  c20                             60 
    x48       c29                             21  c19                            970 
    x48       c24                            130  c16                            268 
    x48       c12                            720 
    x49       c24                            860  c23                            967 
    x49       c12                             71  c9                              32 
    x49       c28                            449  c21                            926 
    x49       c0                              96  c15                             22 
    x49       c18                             93  c8                             730 
    x49       c22                            466  c14                            550 
    x49       Obj                             25  c16                             71 
    x49       c25                            313  c10                             89 
    x49       c2                              39  c5                              85 
    x49       c26                            266  c27                            947 
    x49       c3                               3  c20                            296 
    x49       c13                             73  c29                            774 
    x49       c17                             91  c19                             49 
    x49       c4                             690  c1                             370 
    x49       c11                             76  c6                             838 
    x49       c7                             694 
    x50       c24                            710  c6                              82 
    x50       c29                            224  c19                             13 
    x50       c1                              96  c11                             47 
    x50       c4                              23  c9                               9 
    x50       c17                             25  c13                             65 
    x50       c27                            462  c26                            482 
    x50       c5                              31  c2                              71 
    x50       c10                            678  c25                            519 
    x50       c20                            262  c14                            708 
    x50       c3                              54  c7                             804 
    x50       c16                            304  Obj                              3 
    x50       c21                            419  c22                            491 
    x50       c18                             57  c0                              27 
    x50       c15                            350  c28                            429 
    x50       c23                            748  c8                              12 
    x50       c12                            728 
    x51       c9                              62  c25                              2 
    x51       c19                              8  c8                              65 
    x51       c12                            930  c17                             47 
    x51       c23                              5  c0                              41 
    x51       c11                            211  c18                            641 
    x51       c4                              18  c15                            866 
    x51       c28                             52  c29                              7 
    x51       c13                            943  c22                             49 
    x51       c1                              61  Obj                              6 
    x51       c3                              27  c21                            810 
    x51       c14                            542  c5                              36 
    x51       c6                               5  c24                              7 
    x51       c27                            444  c7                              39 
    x51       c16                            855  c26                             46 
    x51       c20                            598  c2                             864 
    x51       c10                            476 
    x52       c25                             85  c3                             918 
    x52       c8                              67  c19                             77 
    x52       c2                              59  c10                             97 
    x52       c26                             96  c20                             67 
    x52       c7                               5  c24                            630 
    x52       c23                              7  c21                             23 
    x52       c6                             330  c27                            828 
    x52       Obj                            568  c5                              30 
    x52       c14                             53  c1                              57 
    x52       c16                             22  c13                             62 
    x52       c18                             72  c28                             62 
    x52       c29                             83  c11                             87 
    x52       c17                             12  c15                             57 
    x52       c4                             748  c0                              21 
    x52       c9                               7  c12                             95 
    x52       c22                             67 
    x53       c26                            969  c9                              43 
    x53       c22                            154  Obj                              6 
    x53       c20                            644  c29                            680 
    x53       c4                             408  c17                             56 
    x53       c12                              1  c19                             75 
    x53       c13                            554  c0                              81 
    x53       c16                            564  c15                             86 
    x53       c28                            482  c14                             72 
    x53       c1                              23  c18                             75 
    x53       c27                            935  c6                              58 
    x53       c24                            475  c11                             39 
    x53       c5                             328  c21                            363 
    x53       c7                             644  c23                              6 
    x53       c8                              39  c25                            845 
    x53       c3                              11  c2                              82 
    x53       c10                            234 
    x54       c26                            629  c4                             688 
    x54       c19                             51  c25                            931 
    x54       c24                            903  c3                             620 
    x54       c8                             390  c12                            910 
    x54       c23                            327  c10                              1 
    x54       c18                             51  c21                            519 
    x54       c29                            554  c7                             914 
    x54       c11                              1  c28                            826 
    x54       c1                              13  c14                             86 
    x54       c27                            518  c6                              55 
    x54       c16                             47  c0                              15 
    x54       c13                             46  c15                             83 
    x54       c5                              74  c17                             65 
    x54       c2                              16  c22                            956 
    x54       c20                             80  Obj                              2 
    x54       c9                              17 
    x55       c0                              76  c27                            894 
    x55       c9                              77  c28                            147 
    x55       Obj                            780  c21                            339 
    x55       c18                             96  c11                            570 
    x55       c29                            310  c23                            894 
    x55       c12                              5  c3                              13 
    x55       c26                            128  c4                              97 
    x55       c10                            608  c16                             26 
    x55       c2                             444  c22                            911 
    x55       c13                            318  c25                            731 
    x55       c8                              32  c7                             484 
    x55       c24                            552  c20                            999 
    x55       c15                            178  c6                              66 
    x55       c5                              31  c17                            734 
    x55       c19                             95  c14                             51 
    x55       c1                             164 
    x56       c0                              97  c15                            968 
    x56       c4                              85  c5                              56 
    x56       c6                              53  c20                              3 
    x56       c14                            700  c19                             56 
    x56       c7                               1  c16                             26 
    x56       c8                              39  c2                              37 
    x56       c24                              2  c13                             13 
    x56       c23                             33  c25                             42 
    x56       c18                             83  c10                             19 
    x56       c22                             77  c26                            924 
    x56       c17                             70  c3                              28 
    x56       c12                            804  c21                             86 
    x56       c11                             85  Obj                             69 
    x56       c29                             96  c9                              73 
    x56       c28                            338  c27                             13 
    x56       c1                             908 
    x57       c1                             834  c11                            134 
    x57       Obj                             31  c12                              5 
    x57       c9                             368  c25                            365 
    x57       c14                            524  c13                            540 
    x57       c2                             475  c16                            370 
    x57       c7                               8  c10                             69 
    x57       c8                             318  c27                            591 
    x57       c3                              80  c4                             777 
    x57       c20                            727  c5                             891 
    x57       c19                             63  c15                             52 
    x57       c6                             916  c23                            629 
    x57       c18                             47  c21                            751 
    x57       c22                            635  c24                             45 
    x57       c26                            812  c17                             48 
    x57       c29                            844  c0                             646 
    x57       c28                            911 
    x58       c28                             30  c29                             29 
    x58       c0                             898  c7                              43 
    x58       c26                             19  c18                            403 
    x58       c17                            209  c8                              47 
    x58       c23                            448  c6                              89 
    x58       c24                             97  c22                              2 
    x58       c19                            578  c15                            399 
    x58       c20                             79  c21                              7 
    x58       c3                              79  c5                              62 
    x58       c25                             32  c4                             294 
    x58       c27                             22  c1                             960 
    x58       c11                            967  c16                            569 
    x58       c10                            676  c12                            284 
    x58       Obj                            774  c2                              65 
    x58       c9                              66  c13                             90 
    x58       c14                            577 
    x59       c14                            948  c9                              82 
    x59       c13                             53  Obj                             22 
    x59       c2                               5  c10                             51 
    x59       c12                            128  c11                             12 
    x59       c16                              2  c27                            920 
    x59       c1                              87  c25                             33 
    x59       c4                              17  c20                            374 
    x59       c5                              97  c21                             86 
    x59       c3                               3  c15                            628 
    x59       c19                             47  c24                            974 
    x59       c6                              56  c23                             21 
    x59       c8                              86  c18                             32 
    x59       c17                             71  c7                              92 
    x59       c26                              2  c0                              37 
    x59       c22                             49  c28                            984 
    x59       c29                             61 
    INTEND    'MARKER'                            'INTEND'                           
RHS
    RHS       c0                           10000  c1                           10000 
    RHS       c2                           10000  c3                           10000 
    RHS       c4                           10000  c5                           10000 
    RHS       c6                           10000  c7                           10000 
    RHS       c8                           10000  c9                            7000 
    RHS       c10                          10000  c11                          10000 
    RHS       c12                          10000  c13                          10000 
    RHS       c14                          10000  c15                          10000 
    RHS       c16                          10000  c17                          10000 
    RHS       c18                          10000  c19                           7000 
    RHS       c20                          10000  c21                          10000 
    RHS       c22                          10000  c23                          10000 
    RHS       c24                          10000  c25                          10000 
    RHS       c26                          10000  c27                          10000 
    RHS       c28                          10000  c29                           7000 
BOUNDS
 BV Bound     x0                                 
 BV Bound     x1                                 
 BV Bound     x2                                 
 BV Bound     x3                                 
 BV Bound     x4                                 
 BV Bound     x5                                 
 BV Bound     x6                                 
 BV Bound     x7                                 
 BV Bound     x8                                 
 BV Bound     x9                                 
 BV Bound     x10                                
 BV Bound     x11                                
 BV Bound     x12                                
 BV Bound     x13                                
 BV Bound     x14                                
 BV Bound     x15                                
 BV Bound     x16                                
 BV Bound     x17                                
 BV Bound     x18                                
 BV Bound     x19                                
 BV Bound     x20                                
 BV Bound     x21                                
 BV Bound     x22                                
 BV Bound     x23                                
 BV Bound     x24                                
 BV Bound     x25                                
 BV Bound     x26                                
 BV Bound     x27                                
 BV Bound     x28                                
 BV Bound     x29                                
 BV Bound     x30                                
 BV Bound     x31                                
 BV Bound     x32                                
 BV Bound     x33                                
 BV Bound     x34                                
 BV Bound     x35                                
 BV Bound     x36                                
 BV Bound     x37                                
 BV Bound     x38                                
 BV Bound     x39                                
 BV Bound     x40                                
 BV Bound     x41                                
 BV Bound     x42                                
 BV Bound     x43                                
 BV Bound     x44                                
 BV Bound     x45                                
 BV Bound     x46                                
 BV Bound     x47                                
 BV Bound     x48                                
 BV Bound     x49                                
 BV Bound     x50                                
 BV Bound     x51                                
 BV Bound     x52                                
 BV Bound     x53                                
 BV Bound     x54                                
 BV Bound     x55                                
 BV Bound     x56                                
 BV Bound     x57                                
 BV Bound     x58                                
 BV Bound     x59                                
ENDATA