* SCIP STATISTICS
*   Problem name     : mknap_4
*   Variables        : 100 (100 binary, 0 integer, 0 implicit integer, 0 continuous)
*   Constraints      : 10
NAME          mknap_4
OBJSENSE
  MAX
ROWS
 N  Obj 
 L  c0 
 L  c1 
 L  c2 
 L  c3 
 L  c4 
 L  c5 
 L  c6 
 L  c7 
 L  c8 
 L  c9 
COLUMNS
    INTSTART  'MARKER'                            'INTORG'                           
    x0        Obj                            851  c5                             549 
    x0        c4                             979  c6                             467 
    x0        c3                             908  c7                             208 
    x0        c2                              98  c8                             171 
    x0        c1                             314  c9                             147 
    x0        c0                             867 
    x1        Obj                            727  c5                             638 
    x1        c4                             583  c6                             513 
    x1        c3                             212  c7                             543 
    x1        c2                             126  c8                             678 
    x1        c1                             862  c9                             206 
    x1        c0                              10 
    x2        c9                              37  c5                             357 
    x2        Obj                            473  c3                             115 
    x2        c1                              12  c4                              10 
    x2        c0                             395  c8                             207 
    x2        c7                             532  c2                             675 
    x2        c6                             324 
    x3        c9                             710  c8                             964 
    x3        c2                             335  c1                             411 
    x3        c6                             225  c7                             568 
    x3        c3                             907  Obj                            964 
    x3        c4                             768  c0                             982 
    x3        c5                             763 
    x4        c4                             411  c3                             394 
    x4        c0                             889  c6                             105 
    x4        Obj                            772  c1                              31 
    x4        c7                             603  c2                             543 
    x4        c5                               3  c8                             582 
    x4        c9                              38 
    x5        c8                             671  c3                             275 
    x5        c1                             797  c5                             492 
    x5        c6                             194  c7                             865 
    x5        Obj                            607  c4                              52 
    x5        c0                             789  c9                             456 
    x5        c2                             894 
    x6        Obj                            852  c3                              91 
    x6        c8                             879  c4                             184 
    x6        c0                             495  c7                             751 
    x6        c5                             822  c9                             680 
    x6        c1                              94  c2                             928 
    x6        c6                             281 
    x7        c9                             573  c5                             140 
    x7        c1                             513  c7                              20 
    x7        c2                             934  c4                              85 
    x7        Obj                            850  c8                             253 
    x7        c0                             725  c3                             780 
    x7        c6                              14 
    x8        c5                             325  c7                             699 
    x8        c2                              26  c4                             203 
    x8        c1                             512  c6                             673 
    x8        c0                             807  c8                             130 
    x8        Obj                            521  c3                             222 
    x8        c9                             594 
    x9        c9                             850  c4                             373 
    x9        c8                             854  c6                             240 
    x9        c0                             287  Obj                            855 
    x9        c1                             544  c3                             616 
    x9        c7                              76  c5                             978 
    x9        c2                             551 
    x10       c9                             876  c3                             728 
    x10       Obj                           1121  c4                             296 
    x10       c8                             468  c6                             244 
    x10       c0                             588  c5                             888 
    x10       c7                            1000  c2                             493 
    x10       c1                             756 
    x11       c1                              36  c8                             651 
    x11       c0                             462  c9                             816 
    x11       c2                             673  c7                             593 
    x11       c3                             687  c6                              42 
    x11       c4                             478  c5                             971 
    x11       Obj                            670 
    x12       Obj                           1114  c5                             157 
    x12       c3                             954  c1                             988 
    x12       c7                             899  c9                             418 
    x12       c8                             381  c0                             856 
    x12       c6                             952  c2                             430 
    x12       c4                             300 
    x13       c5                             499  c8                             741 
    x13       c3                             580  c7                             423 
    x13       c9                             855  c0                             980 
    x13       c1                             980  c6                             739 
    x13       c2                             715  c4                             726 
    x13       Obj                            874 
    x14       Obj                           1035  c4                             880 
    x14       c5                             862  c6                             482 
    x14       c7                             738  c1                             672 
    x14       c2                             771  c0                             678 
    x14       c3                             273  c9                             518 
    x14       c8                             754 
    x15       c9                             227  c1                             680 
    x15       c2                             865  c7                             420 
    x15       c6                             562  c8                             276 
    x15       Obj                            919  c3                              49 
    x15       c0                             987  c5                             453 
    x15       c4                             830 
    x16       c3                             381  Obj                            643 
    x16       c5                              22  c9                             326 
    x16       c1                             706  c4                             207 
    x16       c7                             822  c6                             654 
    x16       c0                             160  c8                             880 
    x16       c2                             520 
    x17       c7                             330  c3                             288 
    x17       c9                             732  Obj                            934 
    x17       c4                             202  c2                             544 
    x17       c1                             822  c5                             694 
    x17       c6                             961  c0                             368 
    x17       c8                             214 
    x18       c8                              46  c1                             827 
    x18       c5                             132  c6                             468 
    x18       c0                             197  c3                             980 
    x18       c9                             447  Obj                            733 
    x18       c7                             670  c2                             697 
    x18       c4                             893 
    x19       Obj                            919  c5                             119 
    x19       c8                             426  c0                               8 
    x19       c9                             810  c2                             634 
    x19       c6                             777  c3                             879 
    x19       c4                             957  c7                             266 
    x19       c1                             813 
    x20       c1                             167  c7                             375 
    x20       c3                             974  c4                             508 
    x20       Obj                            611  c9                             534 
    x20       c8                             464  c0                             411 
    x20       c5                             550  c2                             681 
    x20       c6                             887 
    x21       c9                             459  c1                             331 
    x21       c2                              62  c4                             595 
    x21       Obj                            458  c5                             509 
    x21       c0                             887  c6                             496 
    x21       c3                              77  c8                             243 
    x21       c7                             718 
    x22       c8                             981  Obj                            688 
    x22       c0                             671  c1                             320 
    x22       c9                             967  c2                             473 
    x22       c5                             353  c7                             495 
    x22       c4                             790  c3                              41 
    x22       c6                              57 
    x23       c8                             175  c6                             818 
    x23       c0                             544  Obj                            880 
    x23       c9                             453  c1                             227 
    x23       c2                             766  c5                              57 
    x23       c7                             330  c4                             816 
    x23       c3                             931 
    x24       c3                             771  c0                             301 
    x24       c6                             864  c9                             239 
    x24       Obj                            618  c1                             463 
    x24       c7                             958  c2                             987 
    x24       c4                             505  c5                             230 
    x24       c8                             397 
    x25       c9                             792  c0                             868 
    x25       c3                             579  c1                             466 
    x25       c7                             418  c8                             709 
    x25       Obj                            895  c6                              85 
    x25       c5                             206  c4                             435 
    x25       c2                             323 
    x26       Obj                            858  c5                             609 
    x26       c9                             446  c2                             891 
    x26       c0                             846  c3                             257 
    x26       c7                             376  c8                             511 
    x26       c4                             897  c1                             144 
    x26       c6                             937 
    x27       c5                              93  c0                              99 
    x27       c3                             334  Obj                            653 
    x27       c7                             893  c6                             788 
    x27       c1                             197  c8                             130 
    x27       c9                             171  c4                             341 
    x27       c2                             494 
    x28       c1                             309  c9                             431 
    x28       Obj                            777  c7                             410 
    x28       c6                             330  c2                             787 
    x28       c3                              48  c8                             391 
    x28       c0                             681  c4                             732 
    x28       c5                             147 
    x29       c8                              61  c9                             622 
    x29       c7                             413  c6                             111 
    x29       c0                             466  Obj                            522 
    x29       c4                             678  c3                             348 
    x29       c2                             335  c5                             204 
    x29       c1                             238 
    x30       c0                             506  c6                             759 
    x30       c3                             556  c7                             854 
    x30       c1                             137  Obj                            684 
    x30       c4                             288  c8                             856 
    x30       c9                             670  c5                             325 
    x30       c2                             131 
    x31       c7                             550  c4                              75 
    x31       c1                             279  c2                             408 
    x31       c0                             537  Obj                            412 
    x31       c6                             539  c8                             727 
    x31       c3                             220  c5                             159 
    x31       c9                             271 
    x32       c7                             242  c3                             424 
    x32       c4                             559  c6                             224 
    x32       c2                             546  c1                             755 
    x32       c5                             322  c9                             552 
    x32       c8                             541  c0                              78 
    x32       Obj                            527 
    x33       c2                             718  c0                             820 
    x33       c8                              27  c1                             333 
    x33       c3                             910  c9                             719 
    x33       Obj                            876  c4                             131 
    x33       c7                             574  c6                             786 
    x33       c5                             427 
    x34       c4                             721  c6                             668 
    x34       c9                             506  c0                             125 
    x34       c3                              85  c5                             290 
    x34       c7                             308  c2                             131 
    x34       Obj                            615  c1                             510 
    x34       c8                             714 
    x35       c4                             707  c5                             745 
    x35       c9                             357  c3                             874 
    x35       Obj                            879  c7                             802 
    x35       c8                             728  c2                             191 
    x35       c1                             671  c0                             589 
    x35       c6                             858 
    x36       c6                             904  c2                              99 
    x36       c1                             905  c9                             774 
    x36       c7                             753  c8                             646 
    x36       Obj                            870  c5                              93 
    x36       c4                             598  c3                             277 
    x36       c0                             100 
    x37       c4                              22  c9                             733 
    x37       c8                             434  c6                             669 
    x37       c2                             224  c1                             954 
    x37       Obj                            977  c5                             910 
    x37       c7                             405  c0                             366 
    x37       c3                              90 
    x38       c0                             521  Obj                            648 
    x38       c2                             185  c4                             857 
    x38       c1                             533  c6                             435 
    x38       c9                             909  c7                              98 
    x38       c8                             196  c5                             505 
    x38       c3                             839 
    x39       c8                             198  c6                             251 
    x39       Obj                            742  c0                             810 
    x39       c5                             406  c1                              29 
    x39       c7                             942  c2                             197 
    x39       c9                             907  c4                             272 
    x39       c3                             745 
    x40       c3                             512  c9                              96 
    x40       c7                             261  c1                             933 
    x40       c4                             346  c2                             549 
    x40       c6                             283  c0                             330 
    x40       c8                              60  c5                              16 
    x40       Obj                            416 
    x41       Obj                            792  c0                             632 
    x41       c8                             776  c7                             624 
    x41       c4                             263  c1                             186 
    x41       c6                             971  c5                             160 
    x41       c2                             705  c9                             995 
    x41       c3                             569 
    x42       c8                             768  c0                             857 
    x42       c9                             243  c5                             899 
    x42       c7                             461  Obj                            579 
    x42       c3                             148  c6                             440 
    x42       c2                              38  c1                             338 
    x42       c4                             798 
    x43       c1                             801  c8                             333 
    x43       c0                             718  c9                              87 
    x43       c6                             858  c3                             936 
    x43       c4                             288  Obj                            943 
    x43       c5                             290  c2                             256 
    x43       c7                             179 
    x44       c7                             678  Obj                            794 
    x44       c8                             468  c1                             694 
    x44       c2                             870  c0                             326 
    x44       c9                             985  c3                              78 
    x44       c6                             980  c4                              67 
    x44       c5                             882 
    x45       c5                             572  Obj                            832 
    x45       c1                             768  c2                             290 
    x45       c0                             453  c7                              85 
    x45       c4                             721  c9                             219 
    x45       c8                             479  c3                             567 
    x45       c6                             145 
    x46       c8                             535  c3                              89 
    x46       c6                             551  c5                             163 
    x46       c7                             237  c1                             790 
    x46       c2                             812  c9                             392 
    x46       c0                              26  c4                             630 
    x46       Obj                            810 
    x47       c3                              43  c1                             969 
    x47       c2                             984  c0                             649 
    x47       c4                             960  c6                             317 
    x47       c9                             261  c8                              98 
    x47       c5                             699  Obj                            651 
    x47       c7                             154 
    x48       c8                             478  Obj                            799 
    x48       c6                             683  c4                             143 
    x48       c2                             299  c9                             284 
    x48       c7                             342  c0                             337 
    x48       c5                              76  c3                             841 
    x48       c1                             704 
    x49       c5                             406  c7                             419 
    x49       c3                             734  c0                               7 
    x49       c1                             962  c8                             557 
    x49       c9                             638  c4                             762 
    x49       c2                             636  Obj                            786 
    x49       c6                             148 
    x50       c3                             283  c8                             757 
    x50       c9                             722  c4                             643 
    x50       c2                             108  c7                             585 
    x50       c5                             673  c6                             846 
    x50       Obj                           1015  c0                             216 
    x50       c1                             527 
    x51       c6                             763  c8                             366 
    x51       c2                             716  c7                             119 
    x51       c4                             130  c1                             184 
    x51       c3                             197  c0                             355 
    x51       c9                             293  c5                             451 
    x51       Obj                            696 
    x52       c3                             730  c8                             204 
    x52       c5                             436  c2                             737 
    x52       c7                             725  c6                             279 
    x52       c1                             479  c4                             509 
    x52       c0                             200  c9                              41 
    x52       Obj                            800 
    x53       c5                             693  c2                             672 
    x53       c6                             768  c0                             376 
    x53       c7                             263  c1                             456 
    x53       c4                             829  c3                             187 
    x53       Obj                            601  c9                             693 
    x53       c8                             987 
    x54       c1                             927  c8                             604 
    x54       c3                             368  c6                             762 
    x54       c5                              74  c0                             239 
    x54       c9                             887  Obj                            744 
    x54       c7                             419  c4                              67 
    x54       c2                             778 
    x55       c5                             760  c4                             245 
    x55       c9                             270  Obj                            674 
    x55       c6                              63  c0                             969 
    x55       c7                             152  c1                             333 
    x55       c2                             528  c8                             895 
    x55       c3                              94 
    x56       Obj                            912  c4                             832 
    x56       c3                             463  c5                             830 
    x56       c8                             284  c0                             770 
    x56       c2                             610  c9                             361 
    x56       c1                             380  c7                             913 
    x56       c6                             893 
    x57       c6                             977  c5                             263 
    x57       c9                             354  c1                             559 
    x57       c8                             271  Obj                            977 
    x57       c2                             737  c3                             391 
    x57       c7                             791  c4                             312 
    x57       c0                             481 
    x58       c8                             218  c9                             398 
    x58       c0                             264  c4                             977 
    x58       Obj                            614  c3                             469 
    x58       c2                             938  c1                             836 
    x58       c5                             928  c6                             234 
    x58       c7                             371 
    x59       c5                             737  c3                             492 
    x59       c7                             274  c6                             964 
    x59       c9                             437  c1                             537 
    x59       c4                             256  c2                             439 
    x59       c8                              67  c0                             894 
    x59       Obj                            762 
    x60       c6                             523  c1                             128 
    x60       c5                             223  c9                             795 
    x60       c8                              22  c0                             618 
    x60       c2                             273  c4                             933 
    x60       Obj                            470  c7                             200 
    x60       c3                             913 
    x61       c6                             674  c5                              43 
    x61       c2                              83  Obj                            745 
    x61       c9                              69  c8                             986 
    x61       c7                             464  c4                             958 
    x61       c3                             533  c1                             930 
    x61       c0                             667 
    x62       c2                             648  c6                             318 
    x62       c9                             127  c0                             136 
    x62       c5                             939  c8                             402 
    x62       c7                             244  c4                             981 
    x62       Obj                            574  c1                             602 
    x62       c3                             259 
    x63       Obj                            648  c4                             238 
    x63       c6                             581  c7                             128 
    x63       c2                             112  c8                             876 
    x63       c5                             657  c3                             803 
    x63       c9                             491  c0                             473 
    x63       c1                             294 
    x64       c2                             717  c7                             437 
    x64       c5                             369  c6                             946 
    x64       c9                              28  c8                              29 
    x64       c1                              36  c0                             860 
    x64       c3                             513  Obj                            807 
    x64       c4                             331 
    x65       c4                             972  c8                             313 
    x65       Obj                            903  c2                             516 
    x65       c3                             462  c6                             638 
    x65       c5                             348  c7                             959 
    x65       c1                             755  c9                              87 
    x65       c0                             919 
    x66       Obj                            678  c2                              40 
    x66       c6                             957  c9                               2 
    x66       c3                               8  c1                             866 
    x66       c5                             469  c7                             513 
    x66       c0                             487  c4                             148 
    x66       c8                             355 
    x67       c8                             394  c3                             557 
    x67       c7                             938  c5                             865 
    x67       c2                             698  c9                             433 
    x67       Obj                           1092  c1                              79 
    x67       c4                             528  c0                             994 
    x67       c6                             628 
    x68       c7                             796  Obj                            651 
    x68       c9                             817  c0                             232 
    x68       c1                             892  c2                             189 
    x68       c6                             311  c4                             244 
    x68       c5                             989  c8                              69 
    x68       c3                             832 
    x69       c7                             665  c3                             678 
    x69       c0                             198  c1                             893 
    x69       c4                               5  c8                             812 
    x69       c5                             866  c9                             593 
    x69       Obj                            700  c6                             913 
    x69       c2                             863 
    x70       c7                             453  c6                              65 
    x70       c3                             359  c5                             926 
    x70       c8                             571  c2                             433 
    x70       c9                             480  Obj                            471 
    x70       c4                             184  c0                             117 
    x70       c1                              17 
    x71       c4                             997  c8                             987 
    x71       c3                             616  c0                             500 
    x71       c1                             212  c7                             694 
    x71       c6                             894  Obj                            826 
    x71       c5                             647  c2                              46 
    x71       c9                             733 
    x72       c0                             160  c3                             324 
    x72       Obj                            535  c1                             727 
    x72       c8                             312  c7                             350 
    x72       c5                             644  c2                             487 
    x72       c6                              57  c4                             631 
    x72       c9                             500 
    x73       c7                             756  c2                             472 
    x73       Obj                            586  c9                             378 
    x73       c1                             337  c3                             924 
    x73       c5                              40  c8                             521 
    x73       c6                              30  c0                             159 
    x73       c4                             317 
    x74       c2                             947  c5                             124 
    x74       c7                             469  c6                             820 
    x74       c8                             241  c9                             283 
    x74       Obj                            675  c0                              69 
    x74       c3                              15  c4                             901 
    x74       c1                             873 
    x75       c6                             136  c7                             114 
    x75       c5                              73  c9                             922 
    x75       c8                             571  c2                             169 
    x75       Obj                            853  c4                             314 
    x75       c1                             114  c3                             978 
    x75       c0                             594 
    x76       Obj                            599  c5                             772 
    x76       c7                             827  c4                             515 
    x76       c2                             544  c6                             352 
    x76       c0                             656  c8                             384 
    x76       c9                             680  c3                             713 
    x76       c1                             288 
    x77       c1                             602  c5                             478 
    x77       c8                              86  c2                             867 
    x77       Obj                            930  c4                              12 
    x77       c3                             861  c9                             691 
    x77       c7                             634  c0                              76 
    x77       c6                             615 
    x78       c3                             444  c4                             785 
    x78       c8                             421  Obj                            589 
    x78       c6                             574  c2                             314 
    x78       c0                             511  c7                             814 
    x78       c9                             358  c1                             704 
    x78       c5                             431 
    x79       c5                             207  c9                             216 
    x79       c4                             930  c1                             948 
    x79       c8                             956  c0                              65 
    x79       c2                             631  c3                             429 
    x79       c6                             940  Obj                            620 
    x79       c7                             677 
    x80       c7                              35  c2                             683 
    x80       c6                             858  Obj                            832 
    x80       c5                             403  c9                             629 
    x80       c8                              68  c3                              70 
    x80       c0                             138  c4                              44 
    x80       c1                             761 
    x81       c3                             821  c8                             872 
    x81       c6                             414  c4                             714 
    x81       c0                             715  c9                             627 
    x81       Obj                            825  c1                             217 
    x81       c5                             101  c7                             450 
    x81       c2                             539 
    x82       c2                             834  c1                             162 
    x82       c0                             766  c8                            1000 
    x82       c9                             404  c6                             277 
    x82       c3                             104  c7                             261 
    x82       c5                             264  c4                             448 
    x82       Obj                            498 
    x83       Obj                            720  c3                             746 
    x83       c8                             635  c5                             420 
    x83       c4                             300  c1                             908 
    x83       c2                             534  c7                              32 
    x83       c6                             938  c0                             921 
    x83       c9                             457 
    x84       c2                             298  c5                             508 
    x84       c4                             590  c7                             658 
    x84       c6                             836  Obj                            936 
    x84       c9                             145  c0                             519 
    x84       c1                             292  c8                             547 
    x84       c3                             514 
    x85       c0                             301  c5                             508 
    x85       c3                             378  c6                             263 
    x85       c7                             236  c8                             822 
    x85       Obj                            712  c9                              41 
    x85       c1                             559  c2                             779 
    x85       c4                             709 
    x86       c7                             851  Obj                            762 
    x86       c0                             902  c4                             714 
    x86       c1                             927  c3                             143 
    x86       c6                             572  c2                             705 
    x86       c8                             114  c9                             610 
    x86       c5                             128 
    x87       c0                             818  c7                             112 
    x87       c6                             943  Obj                            858 
    x87       c2                             928  c9                              14 
    x87       c5                             986  c1                             920 
    x87       c4                             399  c3                             622 
    x87       c8                             400 
    x88       c2                             358  c1                             186 
    x88       c4                             418  c6                             594 
    x88       c5                             700  Obj                            773 
    x88       c3                             690  c8                             754 
    x88       c9                             613  c0                             366 
    x88       c7                              31 
    x89       c1                             446  c9                             188 
    x89       c2                             510  c7                             471 
    x89       c0                             529  c8                              12 
    x89       Obj                            689  c5                             333 
    x89       c6                             113  c4                             195 
    x89       c3                             489 
    x90       c7                             885  c3                              60 
    x90       Obj                            901  c6                             855 
    x90       c0                             227  c8                             512 
    x90       c1                             404  c2                             898 
    x90       c4                             974  c9                             332 
    x90       c5                             152 
    x91       c5                             840  c6                              22 
    x91       c0                             312  c4                             663 
    x91       c7                              24  c2                             286 
    x91       c9                             285  c8                             956 
    x91       Obj                            873  c1                             244 
    x91       c3                             784 
    x92       c0                             172  c4                             155 
    x92       c1                             127  c9                             403 
    x92       c8                              22  c6                              87 
    x92       c3                              68  c5                             627 
    x92       Obj                            321  c2                             166 
    x92       c7                             819 
    x93       c0                             934  c8                             144 
    x93       Obj                            582  c9                              68 
    x93       c4                             787  c1                              86 
    x93       c5                              70  c3                             461 
    x93       c6                             272  c7                             581 
    x93       c2                             272 
    x94       c0                             354  c9                             360 
    x94       Obj                            529  c4                             299 
    x94       c8                             658  c1                             514 
    x94       c6                             715  c7                             381 
    x94       c3                              71  c5                             996 
    x94       c2                             239 
    x95       Obj                            535  c1                             683 
    x95       c3                             550  c9                             788 
    x95       c4                               4  c0                             519 
    x95       c6                             433  c5                             413 
    x95       c8                             616  c2                             604 
    x95       c7                             385 
    x96       c8                             904  c3                             488 
    x96       c9                              88  c5                             644 
    x96       c4                              47  c0                             911 
    x96       c6                             243  c7                             354 
    x96       c2                               9  Obj                            609 
    x96       c1                             172 
    x97       c1                             673  c3                               3 
    x97       c4                             770  c9                             215 
    x97       c6                             340  c7                             281 
    x97       c0                             250  Obj                            529 
    x97       c2                             920  c8                             687 
    x97       c5                             240 
    x98       c6                             689  Obj                            744 
    x98       c2                             788  c9                             196 
    x98       c5                              30  c0                             672 
    x98       c7                             146  c4                             211 
    x98       c8                             549  c1                             913 
    x98       c3                             268 
    x99       c3                             538  c4                             918 
    x99       c5                             250  c2                             673 
    x99       c8                             889  Obj                            972 
    x99       c0                             646  c7                             761 
    x99       c6                             437  c1                             485 
    x99       c9                             186 
    INTEND    'MARKER'                            'INTEND'                           
RHS
    RHS       c0                           12580  c1                           12919 
    RHS       c2                           12964  c3                           11745 
    RHS       c4                           12501  c5                           11434 
    RHS       c6                           13295  c7                           12220 
    RHS       c8                           12257  c9                           11454 
BOUNDS
 BV Bound     x0                                 
 BV Bound     x1                                 
 BV Bound     x2                                 
 BV Bound     x3                                 
 BV Bound     x4                                 
 BV Bound     x5                                 
 BV Bound     x6                                 
 BV Bound     x7                                 
 BV Bound     x8                                 
 BV Bound     x9                                 
 BV Bound     x10                                
 BV Bound     x11                                
 BV Bound     x12                                
 BV Bound     x13                                
 BV Bound     x14                                
 BV Bound     x15                                
 BV Bound     x16                                
 BV Bound     x17                                
 BV Bound     x18                                
 BV Bound     x19                                
 BV Bound     x20                                
 BV Bound     x21                                
 BV Bound     x22                                
 BV Bound     x23                                
 BV Bound     x24                                
 BV Bound     x25                                
 BV Bound     x26                                
 BV Bound     x27                                
 BV Bound     x28                                
 BV Bound     x29                                
 BV Bound     x30                                
 BV Bound     x31                                
 BV Bound     x32                                
 BV Bound     x33                                
 BV Bound     x34                                
 BV Bound     x35                                
 BV Bound     x36                                
 BV Bound     x37                                
 BV Bound     x38                                
 BV Bound     x39                                
 BV Bound     x40                                
 BV Bound     x41                                
 BV Bound     x42                                
 BV Bound     x43                                
 BV Bound     x44                                
 BV Bound     x45                                
 BV Bound     x46                                
 BV Bound     x47                                
 BV Bound     x48                                
 BV Bound     x49                                
 BV Bound     x50                                
 BV Bound     x51                                
 BV Bound     x52                                
 BV Bound     x53                                
 BV Bound     x54                                
 BV Bound     x55                                
 BV Bound     x56                                
 BV Bound     x57                                
 BV Bound     x58                                
 BV Bound     x59                                
 BV Bound     x60                                
 BV Bound     x61                                
 BV Bound     x62                                
 BV Bound     x63                                
 BV Bound     x64                                
 BV Bound     x65                                
 BV Bound     x66                                
 BV Bound     x67                                
 BV Bound     x68                                
 BV Bound     x69                                
 BV Bound     x70                                
 BV Bound     x71                                
 BV Bound     x72                                
 BV Bound     x73                                
 BV Bound     x74                                
 BV Bound     x75                                
 BV Bound     x76                                
 BV Bound     x77                                
 BV Bound     x78                                
 BV Bound     x79                                
 BV Bound     x80                                
 BV Bound     x81                                
 BV Bound     x82                                
 BV Bound     x83                                
 BV Bound     x84                                
 BV Bound     x85                                
 BV Bound     x86                                
 BV Bound     x87                                
 BV Bound     x88                                
 BV Bound     x89                                
 BV Bound     x90                                
 BV Bound     x91                                
 BV Bound     x92                                
 BV Bound     x93                                
 BV Bound     x94                                
 BV Bound     x95                                
 BV Bound     x96                                
 BV Bound     x97                                
 BV Bound     x98                                
 BV Bound     x99                                
ENDATA