* SCIP STATISTICS
*   Problem name     : mknap_10
*   Variables        : 100 (100 binary, 0 integer, 0 implicit integer, 0 continuous)
*   Constraints      : 10
NAME          mknap_10
OBJSENSE
  MAX
ROWS
 N  Obj 
 L  c0 
 L  c1 
 L  c2 
 L  c3 
 L  c4 
 L  c5 
 L  c6 
 L  c7 
 L  c8 
 L  c9 
COLUMNS
    INTSTART  'MARKER'                            'INTORG'                           
    x0        Obj                            694  c5                             596 
    x0        c4                             298  c6                             846 
    x0        c3                             243  c7                             113 
    x0        c2                              10  c8                             929 
    x0        c1                             727  c9                             492 
    x0        c0                             300 
    x1        Obj                            668  c5                             470 
    x1        c4                             841  c6                             275 
    x1        c3                             542  c7                             575 
    x1        c2                             573  c8                             232 
    x1        c1                             393  c9                             581 
    x1        c0                             312 
    x2        c9                             916  c5                             904 
    x2        Obj                            755  c3                             212 
    x2        c1                             192  c4                             276 
    x2        c0                             576  c8                              91 
    x2        c7                             747  c2                             138 
    x2        c6                             746 
    x3        c9                             686  c8                             564 
    x3        c2                             178  c1                             689 
    x3        c6                             274  c7                             970 
    x3        c3                             103  Obj                            826 
    x3        c4                              15  c0                             457 
    x3        c5                             327 
    x4        c4                             748  c3                             402 
    x4        c0                             753  c6                             604 
    x4        Obj                            568  c1                             360 
    x4        c7                             657  c2                             320 
    x4        c5                             662  c8                             425 
    x4        c9                             692 
    x5        c8                             489  c3                              61 
    x5        c1                             259  c5                             679 
    x5        c6                             602  c7                             702 
    x5        Obj                            989  c4                             562 
    x5        c0                             964  c9                             452 
    x5        c2                             813 
    x6        Obj                            530  c3                              89 
    x6        c8                             418  c4                             840 
    x6        c0                             561  c7                             782 
    x6        c5                             630  c9                             475 
    x6        c1                              55  c2                             810 
    x6        c6                               7 
    x7        c9                             881  c5                             871 
    x7        c1                             428  c7                             860 
    x7        c2                             102  c4                             610 
    x7        Obj                            604  c8                             370 
    x7        c0                             826  c3                             503 
    x7        c6                             415 
    x8        c5                             960  c7                              85 
    x8        c2                             601  c4                             844 
    x8        c1                             243  c6                             845 
    x8        c0                             136  c8                             710 
    x8        Obj                            946  c3                             112 
    x8        c9                             598 
    x9        c9                             304  c4                             784 
    x9        c8                             549  c6                             102 
    x9        c0                             369  Obj                            904 
    x9        c1                             859  c3                             131 
    x9        c7                             397  c5                             632 
    x9        c2                             975 
    x10       c9                             346  c3                             354 
    x10       Obj                            456  c4                             294 
    x10       c8                             316  c6                             533 
    x10       c0                             372  c5                             181 
    x10       c7                             589  c2                             335 
    x10       c1                             701 
    x11       c1                             926  c8                             906 
    x11       c0                             510  c9                               8 
    x11       c2                             935  c7                             313 
    x11       c3                             748  c6                             119 
    x11       c4                             290  c5                             336 
    x11       Obj                            899 
    x12       Obj                            847  c5                             237 
    x12       c3                             743  c1                             895 
    x12       c7                             113  c9                             952 
    x12       c8                             126  c0                              34 
    x12       c6                             872  c2                             694 
    x12       c4                             676 
    x13       c5                             176  c8                             627 
    x13       c3                             324  c7                             310 
    x13       c9                             937  c0                             871 
    x13       c1                             584  c6                             962 
    x13       c2                              49  c4                             257 
    x13       Obj                            636 
    x14       Obj                            593  c4                             618 
    x14       c5                             783  c6                             911 
    x14       c7                              39  c1                             115 
    x14       c2                             247  c0                             708 
    x14       c3                             723  c9                             924 
    x14       c8                              75 
    x15       c9                              71  c1                             927 
    x15       c2                             476  c7                             669 
    x15       c6                             170  c8                             746 
    x15       Obj                            791  c3                             763 
    x15       c0                             446  c5                              70 
    x15       c4                             910 
    x16       c3                             242  Obj                            824 
    x16       c5                             873  c9                             266 
    x16       c1                             191  c4                             256 
    x16       c7                             891  c6                              62 
    x16       c0                             821  c8                             894 
    x16       c2                             784 
    x17       c7                             445  c3                             621 
    x17       c9                             406  Obj                            676 
    x17       c4                              68  c2                             668 
    x17       c1                             508  c5                             320 
    x17       c6                             926  c0                             126 
    x17       c8                             384 
    x18       c8                             505  c1                             117 
    x18       c5                             359  c6                             762 
    x18       c0                             646  c3                             935 
    x18       c9                             127  Obj                            602 
    x18       c7                             897  c2                             550 
    x18       c4                             389 
    x19       Obj                           1030  c5                             726 
    x19       c8                             899  c0                             838 
    x19       c9                             705  c2                              33 
    x19       c6                             177  c3                             905 
    x19       c4                             649  c7                             804 
    x19       c1                             891 
    x20       c1                             231  c7                              36 
    x20       c3                             327  c4                              97 
    x20       Obj                            753  c9                             502 
    x20       c8                             524  c0                             986 
    x20       c5                             253  c2                             367 
    x20       c6                             308 
    x21       c9                             221  c1                             656 
    x21       c2                             116  c4                             231 
    x21       Obj                            502  c5                             759 
    x21       c0                             180  c6                             550 
    x21       c3                              90  c8                             578 
    x21       c7                             221 
    x22       c8                              17  Obj                            605 
    x22       c0                             758  c1                             518 
    x22       c9                             769  c2                             781 
    x22       c5                             718  c7                             173 
    x22       c4                             477  c3                             781 
    x22       c6                             755 
    x23       c8                             294  c6                              79 
    x23       c0                             448  Obj                            789 
    x23       c9                             678  c1                              52 
    x23       c2                             680  c5                             575 
    x23       c7                             398  c4                              52 
    x23       c3                             766 
    x24       c3                             311  c0                             883 
    x24       c6                             994  c9                             338 
    x24       Obj                            654  c1                             918 
    x24       c7                             481  c2                             714 
    x24       c4                             685  c5                             786 
    x24       c8                             432 
    x25       c9                             999  c0                             993 
    x25       c3                             399  c1                             990 
    x25       c7                             667  c8                             133 
    x25       Obj                            902  c6                             369 
    x25       c5                             286  c4                             872 
    x25       c2                             954 
    x26       Obj                            750  c5                              89 
    x26       c9                             896  c2                             345 
    x26       c0                              19  c3                             233 
    x26       c7                             932  c8                             254 
    x26       c4                             788  c1                             299 
    x26       c6                             345 
    x27       c5                             594  c0                             285 
    x27       c3                             116  Obj                            507 
    x27       c7                             921  c6                             336 
    x27       c1                             955  c8                              58 
    x27       c9                             453  c4                              54 
    x27       c2                              79 
    x28       c1                             752  c9                              79 
    x28       Obj                            914  c7                             361 
    x28       c6                             217  c2                             669 
    x28       c3                             967  c8                             519 
    x28       c0                             213  c4                             653 
    x28       c5                             151 
    x29       c8                             182  c9                             904 
    x29       c7                             752  c6                             713 
    x29       c0                             738  Obj                            578 
    x29       c4                             549  c3                             193 
    x29       c2                             616  c5                             146 
    x29       c1                             307 
    x30       c0                             897  c6                             322 
    x30       c3                             731  c7                             775 
    x30       c1                             807  Obj                            871 
    x30       c4                             371  c8                             692 
    x30       c9                             675  c5                             155 
    x30       c2                             931 
    x31       c7                             867  c4                             429 
    x31       c1                             684  c2                             247 
    x31       c0                              43  Obj                            757 
    x31       c6                             299  c8                             907 
    x31       c3                             479  c5                             154 
    x31       c9                             944 
    x32       c7                              27  c3                             228 
    x32       c4                              36  c6                             934 
    x32       c2                             779  c1                             313 
    x32       c5                             963  c9                             895 
    x32       c8                               5  c0                              82 
    x32       Obj                            719 
    x33       c2                             121  c0                             199 
    x33       c8                             624  c1                             226 
    x33       c3                             250  c9                             519 
    x33       Obj                            667  c4                             577 
    x33       c7                             968  c6                             999 
    x33       c5                             772 
    x34       c4                             317  c6                             230 
    x34       c9                             457  c0                             777 
    x34       c3                             802  c5                             897 
    x34       c7                             953  c2                             419 
    x34       Obj                           1046  c1                             836 
    x34       c8                             386 
    x35       c4                             804  c5                             731 
    x35       c9                             746  c3                             793 
    x35       Obj                            863  c7                             724 
    x35       c8                             225  c2                             993 
    x35       c1                             828  c0                             956 
    x35       c6                             209 
    x36       c6                             577  c2                             216 
    x36       c1                             104  c9                             257 
    x36       c7                             623  c8                             229 
    x36       Obj                            610  c5                             338 
    x36       c4                             944  c3                             177 
    x36       c0                             539 
    x37       c4                             988  c9                             833 
    x37       c8                             986  c6                             452 
    x37       c2                              87  c1                             154 
    x37       Obj                           1023  c5                             731 
    x37       c7                             227  c0                             589 
    x37       c3                             550 
    x38       c0                             243  Obj                            600 
    x38       c2                              76  c4                              99 
    x38       c1                             908  c6                             438 
    x38       c9                             701  c7                             429 
    x38       c8                             157  c5                             394 
    x38       c3                             958 
    x39       c8                             118  c6                             779 
    x39       Obj                            367  c0                             140 
    x39       c5                             629  c1                             412 
    x39       c7                             237  c2                              22 
    x39       c9                             426  c4                             418 
    x39       c3                             212 
    x40       c3                              72  c9                             292 
    x40       c7                             993  c1                             313 
    x40       c4                             827  c2                             709 
    x40       c6                             188  c0                             232 
    x40       c8                             386  c5                             639 
    x40       Obj                            885 
    x41       Obj                            680  c0                             259 
    x41       c8                              61  c7                             878 
    x41       c4                             970  c1                             843 
    x41       c6                             976  c5                             516 
    x41       c2                             121  c9                             606 
    x41       c3                             521 
    x42       c8                             667  c0                             599 
    x42       c9                             583  c5                             403 
    x42       c7                             254  Obj                            911 
    x42       c3                             168  c6                             451 
    x42       c2                             550  c1                             459 
    x42       c4                             387 
    x43       c1                             275  c8                             725 
    x43       c0                             297  c9                              12 
    x43       c6                             229  c3                             383 
    x43       c4                             182  Obj                            791 
    x43       c5                             997  c2                             285 
    x43       c7                             276 
    x44       c7                             709  Obj                           1021 
    x44       c8                             275  c1                             841 
    x44       c2                             715  c0                             367 
    x44       c9                             709  c3                             498 
    x44       c6                             948  c4                             606 
    x44       c5                             189 
    x45       c5                             302  Obj                            556 
    x45       c1                              50  c2                             547 
    x45       c0                             781  c7                             305 
    x45       c4                             591  c9                              32 
    x45       c8                             814  c3                             605 
    x45       c6                             387 
    x46       c8                             244  c3                             746 
    x46       c6                             630  c5                             676 
    x46       c7                             362  c1                             749 
    x46       c2                             838  c9                             241 
    x46       c0                             406  c4                             904 
    x46       Obj                            768 
    x47       c3                             365  c1                             364 
    x47       c2                             475  c0                             536 
    x47       c4                             669  c6                             756 
    x47       c9                             123  c8                              67 
    x47       c5                             424  Obj                            511 
    x47       c7                             554 
    x48       c8                              89  Obj                            465 
    x48       c6                             362  c4                              26 
    x48       c2                             750  c9                             185 
    x48       c7                             246  c0                             317 
    x48       c5                             542  c3                             790 
    x48       c1                             392 
    x49       c5                             257  c7                             206 
    x49       c3                             356  c0                             729 
    x49       c1                             562  c8                             464 
    x49       c9                             279  c4                              39 
    x49       c2                             996  Obj                            667 
    x49       c6                             748 
    x50       c3                             957  c8                             353 
    x50       c9                             158  c4                             208 
    x50       c2                             117  c7                             262 
    x50       c5                             963  c6                             458 
    x50       Obj                            840  c0                             788 
    x50       c1                             807 
    x51       c6                             112  c8                             807 
    x51       c2                             953  c7                             378 
    x51       c4                              23  c1                             437 
    x51       c3                             976  c0                             844 
    x51       c9                             232  c5                             223 
    x51       Obj                            779 
    x52       c3                             562  c8                             559 
    x52       c5                             480  c2                             494 
    x52       c7                             580  c6                             518 
    x52       c1                              56  c4                             142 
    x52       c0                             848  c9                             296 
    x52       Obj                            454 
    x53       c5                             440  c2                             581 
    x53       c6                             645  c0                             846 
    x53       c7                             111  c1                             903 
    x53       c4                              16  c3                             954 
    x53       Obj                            728  c9                             734 
    x53       c8                             559 
    x54       c1                             334  c8                             641 
    x54       c3                             335  c6                             979 
    x54       c5                             204  c0                             105 
    x54       c9                              82  Obj                            554 
    x54       c7                             688  c4                             663 
    x54       c2                             147 
    x55       c5                             112  c4                             396 
    x55       c9                             297  Obj                            581 
    x55       c6                             490  c0                             837 
    x55       c7                             498  c1                             394 
    x55       c2                             392  c8                             576 
    x55       c3                             432 
    x56       Obj                            825  c4                             112 
    x56       c3                             341  c5                             322 
    x56       c8                             534  c0                             960 
    x56       c2                             343  c9                             303 
    x56       c1                             711  c7                             777 
    x56       c6                               7 
    x57       c6                             579  c5                             778 
    x57       c9                             771  c1                              48 
    x57       c8                             797  Obj                            559 
    x57       c2                             446  c3                             511 
    x57       c7                             284  c4                             363 
    x57       c0                             485 
    x58       c8                             103  c9                             393 
    x58       c0                              36  c4                             799 
    x58       Obj                            631  c3                             402 
    x58       c2                             690  c1                              17 
    x58       c5                               5  c6                             750 
    x58       c7                             222 
    x59       c5                             538  c3                             124 
    x59       c7                             879  c6                             693 
    x59       c9                             403  c1                             285 
    x59       c4                             706  c2                             574 
    x59       c8                             843  c0                             881 
    x59       Obj                            992 
    x60       c6                             277  c1                             142 
    x60       c5                             498  c9                             604 
    x60       c8                             358  c0                             585 
    x60       c2                             419  c4                             115 
    x60       Obj                            472  c7                             826 
    x60       c3                             537 
    x61       c6                              30  c5                             645 
    x61       c2                             304  Obj                            633 
    x61       c9                              26  c8                             788 
    x61       c7                             135  c4                             343 
    x61       c3                             439  c1                             620 
    x61       c0                             327 
    x62       c2                             882  c6                             518 
    x62       c9                             225  c0                             143 
    x62       c5                             155  c8                             637 
    x62       c7                             698  c4                             212 
    x62       Obj                            834  c1                             783 
    x62       c3                              18 
    x63       Obj                            580  c4                             251 
    x63       c6                             732  c7                             810 
    x63       c2                              78  c8                             385 
    x63       c5                             631  c3                             788 
    x63       c9                             101  c0                             846 
    x63       c1                             807 
    x64       c2                             180  c7                             317 
    x64       c5                             420  c6                             563 
    x64       c9                             128  c8                             204 
    x64       c1                             343  c0                             114 
    x64       c3                              41  Obj                            680 
    x64       c4                              20 
    x65       c4                             252  c8                             447 
    x65       Obj                            574  c2                             450 
    x65       c3                             554  c6                             588 
    x65       c5                             229  c7                             352 
    x65       c1                             578  c9                             670 
    x65       c0                             981 
    x66       Obj                            805  c2                             287 
    x66       c6                              10  c9                             175 
    x66       c3                             198  c1                             768 
    x66       c5                             407  c7                             802 
    x66       c0                             776  c4                             936 
    x66       c8                             415 
    x67       c8                             418  c3                             484 
    x67       c7                             212  c5                             855 
    x67       c2                               1  c9                             498 
    x67       Obj                            706  c1                             594 
    x67       c4                             992  c0                               3 
    x67       c6                             494 
    x68       c7                              39  Obj                            661 
    x68       c9                             839  c0                             306 
    x68       c1                               1  c2                             932 
    x68       c6                             789  c4                             253 
    x68       c5                             138  c8                             606 
    x68       c3                             615 
    x69       c7                             639  c3                             746 
    x69       c0                             996  c1                             885 
    x69       c4                             328  c8                             649 
    x69       c5                             238  c9                             548 
    x69       Obj                           1175  c6                             862 
    x69       c2                             949 
    x70       c7                             913  c6                             815 
    x70       c3                               4  c5                             366 
    x70       c8                             472  c2                             365 
    x70       c9                             915  Obj                            972 
    x70       c4                             731  c0                             293 
    x70       c1                             446 
    x71       c4                              25  c8                             268 
    x71       c3                             737  c0                             761 
    x71       c1                             422  c7                             619 
    x71       c6                             100  Obj                            863 
    x71       c5                             776  c2                             686 
    x71       c9                             276 
    x72       c0                             264  c3                              50 
    x72       Obj                            549  c1                             307 
    x72       c8                             455  c7                             867 
    x72       c5                             302  c2                             392 
    x72       c6                             806  c4                             782 
    x72       c9                             166 
    x73       c7                             453  c2                             638 
    x73       Obj                            662  c9                             791 
    x73       c1                             846  c3                             257 
    x73       c5                             271  c8                             858 
    x73       c6                              16  c0                             401 
    x73       c4                             260 
    x74       c2                             383  c5                             868 
    x74       c7                              47  c6                              78 
    x74       c8                             341  c9                             154 
    x74       Obj                            620  c0                             677 
    x74       c3                             666  c4                             441 
    x74       c1                             607 
    x75       c6                             982  c7                             138 
    x75       c5                             624  c9                             433 
    x75       c8                             498  c2                             266 
    x75       Obj                            994  c4                             904 
    x75       c1                             128  c3                             913 
    x75       c0                             645 
    x76       Obj                            777  c5                             272 
    x76       c7                             105  c4                             375 
    x76       c2                             769  c6                             262 
    x76       c0                             911  c8                             563 
    x76       c9                             936  c3                             336 
    x76       c1                             770 
    x77       c1                             608  c5                               3 
    x77       c8                             517  c2                             334 
    x77       Obj                            738  c4                             548 
    x77       c3                             302  c9                             787 
    x77       c7                             432  c0                             118 
    x77       c6                             577 
    x78       c3                             552  c4                             649 
    x78       c8                             891  Obj                            756 
    x78       c6                              21  c2                             578 
    x78       c0                             318  c7                             417 
    x78       c9                             799  c1                             745 
    x78       c5                             222 
    x79       c5                             462  c9                             287 
    x79       c4                             488  c1                             186 
    x79       c8                             381  c0                             979 
    x79       c2                             784  c3                             173 
    x79       c6                              57  Obj                            683 
    x79       c7                             673 
    x80       c7                             116  c2                             640 
    x80       c6                             597  Obj                            635 
    x80       c5                             600  c9                             433 
    x80       c8                             785  c3                             682 
    x80       c0                             235  c4                             510 
    x80       c1                             290 
    x81       c3                             747  c8                             123 
    x81       c6                             375  c4                             584 
    x81       c0                             271  c9                             506 
    x81       Obj                            934  c1                             593 
    x81       c5                             839  c7                             323 
    x81       c2                             876 
    x82       c2                             900  c1                             868 
    x82       c0                             874  c8                             426 
    x82       c9                             137  c6                             599 
    x82       c3                             646  c7                             937 
    x82       c5                             937  c4                               1 
    x82       Obj                            769 
    x83       Obj                            363  c3                             453 
    x83       c8                              91  c5                             267 
    x83       c4                             520  c1                             493 
    x83       c2                              87  c7                              73 
    x83       c6                             498  c0                             617 
    x83       c9                              70 
    x84       c2                             116  c5                             347 
    x84       c4                             609  c7                             154 
    x84       c6                             731  Obj                            687 
    x84       c9                              39  c0                             719 
    x84       c1                             678  c8                             444 
    x84       c3                             896 
    x85       c0                             384  c5                             957 
    x85       c3                             752  c6                             911 
    x85       c7                              90  c8                             246 
    x85       Obj                            715  c9                             280 
    x85       c1                             197  c2                             173 
    x85       c4                             605 
    x86       c7                             252  Obj                            614 
    x86       c0                             201  c4                             139 
    x86       c1                             566  c3                             183 
    x86       c6                             267  c2                             540 
    x86       c8                             374  c9                             842 
    x86       c5                             453 
    x87       c0                             257  c7                             406 
    x87       c6                             167  Obj                            838 
    x87       c2                             174  c9                             594 
    x87       c5                             716  c1                             127 
    x87       c4                             903  c3                             599 
    x87       c8                             185 
    x88       c2                             182  c1                             496 
    x88       c4                              74  c6                             843 
    x88       c5                             766  Obj                            636 
    x88       c3                             240  c8                             312 
    x88       c9                             379  c0                             201 
    x88       c7                              90 
    x89       c1                             914  c9                             511 
    x89       c2                             593  c7                             398 
    x89       c0                             115  c8                             421 
    x89       Obj                            630  c5                             770 
    x89       c6                             751  c4                              83 
    x89       c3                             493 
    x90       c7                               5  c3                             699 
    x90       Obj                            478  c6                             565 
    x90       c0                             277  c8                             608 
    x90       c1                             810  c2                             488 
    x90       c4                             429  c9                             213 
    x90       c5                             425 
    x91       c5                             444  c6                             225 
    x91       c0                             980  c4                             975 
    x91       c7                             195  c2                             112 
    x91       c9                             597  c8                              66 
    x91       Obj                            961  c1                             364 
    x91       c3                             694 
    x92       c0                             860  c4                             501 
    x92       c1                             887  c9                             108 
    x92       c8                             429  c6                             402 
    x92       c3                             339  c5                             955 
    x92       Obj                            785  c2                             831 
    x92       c7                             727 
    x93       c0                             146  c8                             778 
    x93       Obj                            713  c9                              18 
    x93       c4                             637  c1                             132 
    x93       c5                             801  c3                             361 
    x93       c6                             916  c7                             461 
    x93       c2                             437 
    x94       c0                             200  c9                             453 
    x94       Obj                            792  c4                             451 
    x94       c8                             193  c1                             213 
    x94       c6                             279  c7                              20 
    x94       c3                             621  c5                             765 
    x94       c2                             257 
    x95       Obj                            744  c1                             685 
    x95       c3                             668  c9                             902 
    x95       c4                             514  c0                             398 
    x95       c6                             107  c5                              52 
    x95       c8                             837  c2                             192 
    x95       c7                              47 
    x96       c8                             381  c3                             674 
    x96       c9                             574  c5                             102 
    x96       c4                             435  c0                             604 
    x96       c6                             348  c7                             838 
    x96       c2                               6  Obj                            562 
    x96       c1                             243 
    x97       c1                             390  c3                             870 
    x97       c4                             410  c9                             107 
    x97       c6                               2  c7                             207 
    x97       c0                              97  Obj                            838 
    x97       c2                             567  c8                             884 
    x97       c5                             766 
    x98       c6                             541  Obj                            446 
    x98       c2                             239  c9                             333 
    x98       c5                             474  c0                             301 
    x98       c7                               6  c4                             205 
    x98       c8                             130  c1                             878 
    x98       c3                             113 
    x99       c3                             880  c4                             829 
    x99       c5                             754  c2                             467 
    x99       c8                             247  Obj                           1055 
    x99       c0                             686  c7                             185 
    x99       c6                             938  c1                             611 
    x99       c9                             500 
    INTEND    'MARKER'                            'INTEND'                           
RHS
    RHS       c0                           25307  c1                           25436 
    RHS       c2                           23390  c3                           24119 
    RHS       c4                           23307  c5                           25248 
    RHS       c6                           24830  c7                           23108 
    RHS       c8                           22625  c9                           23398 
BOUNDS
 BV Bound     x0                                 
 BV Bound     x1                                 
 BV Bound     x2                                 
 BV Bound     x3                                 
 BV Bound     x4                                 
 BV Bound     x5                                 
 BV Bound     x6                                 
 BV Bound     x7                                 
 BV Bound     x8                                 
 BV Bound     x9                                 
 BV Bound     x10                                
 BV Bound     x11                                
 BV Bound     x12                                
 BV Bound     x13                                
 BV Bound     x14                                
 BV Bound     x15                                
 BV Bound     x16                                
 BV Bound     x17                                
 BV Bound     x18                                
 BV Bound     x19                                
 BV Bound     x20                                
 BV Bound     x21                                
 BV Bound     x22                                
 BV Bound     x23                                
 BV Bound     x24                                
 BV Bound     x25                                
 BV Bound     x26                                
 BV Bound     x27                                
 BV Bound     x28                                
 BV Bound     x29                                
 BV Bound     x30                                
 BV Bound     x31                                
 BV Bound     x32                                
 BV Bound     x33                                
 BV Bound     x34                                
 BV Bound     x35                                
 BV Bound     x36                                
 BV Bound     x37                                
 BV Bound     x38                                
 BV Bound     x39                                
 BV Bound     x40                                
 BV Bound     x41                                
 BV Bound     x42                                
 BV Bound     x43                                
 BV Bound     x44                                
 BV Bound     x45                                
 BV Bound     x46                                
 BV Bound     x47                                
 BV Bound     x48                                
 BV Bound     x49                                
 BV Bound     x50                                
 BV Bound     x51                                
 BV Bound     x52                                
 BV Bound     x53                                
 BV Bound     x54                                
 BV Bound     x55                                
 BV Bound     x56                                
 BV Bound     x57                                
 BV Bound     x58                                
 BV Bound     x59                                
 BV Bound     x60                                
 BV Bound     x61                                
 BV Bound     x62                                
 BV Bound     x63                                
 BV Bound     x64                                
 BV Bound     x65                                
 BV Bound     x66                                
 BV Bound     x67                                
 BV Bound     x68                                
 BV Bound     x69                                
 BV Bound     x70                                
 BV Bound     x71                                
 BV Bound     x72                                
 BV Bound     x73                                
 BV Bound     x74                                
 BV Bound     x75                                
 BV Bound     x76                                
 BV Bound     x77                                
 BV Bound     x78                                
 BV Bound     x79                                
 BV Bound     x80                                
 BV Bound     x81                                
 BV Bound     x82                                
 BV Bound     x83                                
 BV Bound     x84                                
 BV Bound     x85                                
 BV Bound     x86                                
 BV Bound     x87                                
 BV Bound     x88                                
 BV Bound     x89                                
 BV Bound     x90                                
 BV Bound     x91                                
 BV Bound     x92                                
 BV Bound     x93                                
 BV Bound     x94                                
 BV Bound     x95                                
 BV Bound     x96                                
 BV Bound     x97                                
 BV Bound     x98                                
 BV Bound     x99                                
ENDATA