* SCIP STATISTICS
*   Problem name     : mknap_2
*   Variables        : 100 (100 binary, 0 integer, 0 implicit integer, 0 continuous)
*   Constraints      : 10
NAME          mknap_2
OBJSENSE
  MAX
ROWS
 N  Obj 
 L  c0 
 L  c1 
 L  c2 
 L  c3 
 L  c4 
 L  c5 
 L  c6 
 L  c7 
 L  c8 
 L  c9 
COLUMNS
    INTSTART  'MARKER'                            'INTORG'                           
    x0        Obj                            793  c5                             620 
    x0        c4                             463  c6                             281 
    x0        c3                             110  c7                             749 
    x0        c2                             353  c8                             202 
    x0        c1                             414  c9                             395 
    x0        c0                             292 
    x1        Obj                            756  c5                              22 
    x1        c4                             800  c6                             462 
    x1        c3                              33  c7                             807 
    x1        c2                             346  c8                             122 
    x1        c1                             271  c9                             933 
    x1        c0                             819 
    x2        c9                             327  c5                             943 
    x2        Obj                            923  c3                             870 
    x2        c1                             673  c4                             981 
    x2        c0                             468  c8                             137 
    x2        c7                               1  c2                             187 
    x2        c6                             441 
    x3        c9                             981  c8                             432 
    x3        c2                             109  c1                             955 
    x3        c6                             173  c7                             815 
    x3        c3                             970  Obj                            915 
    x3        c4                             527  c0                             428 
    x3        c5                             736 
    x4        c4                             496  c3                             735 
    x4        c0                             992  c6                             889 
    x4        Obj                            833  c1                             697 
    x4        c7                             198  c2                             490 
    x4        c5                             104  c8                              96 
    x4        c9                             500 
    x5        c8                             902  c3                             871 
    x5        c1                             869  c5                             588 
    x5        c6                              66  c7                             527 
    x5        Obj                            667  c4                             260 
    x5        c0                             241  c9                             233 
    x5        c2                             387 
    x6        Obj                            701  c3                             507 
    x6        c8                             355  c4                             802 
    x6        c0                             417  c7                             233 
    x6        c5                             906  c9                             175 
    x6        c1                             290  c2                             578 
    x6        c6                             687 
    x7        c9                             586  c5                             517 
    x7        c1                             765  c7                             529 
    x7        c2                             127  c4                             671 
    x7        Obj                            700  c8                             432 
    x7        c0                             939  c3                              52 
    x7        c6                             693 
    x8        c5                             247  c7                             260 
    x8        c2                               7  c4                              28 
    x8        c1                             634  c6                             263 
    x8        c0                              44  c8                             289 
    x8        Obj                            311  c3                             735 
    x8        c9                             403 
    x9        c9                              10  c4                              61 
    x9        c8                             439  c6                             846 
    x9        c0                             447  Obj                            891 
    x9        c1                             781  c3                             711 
    x9        c7                             817  c5                             880 
    x9        c2                             221 
    x10       c9                             773  c3                             631 
    x10       Obj                            790  c4                             584 
    x10       c8                             218  c6                             756 
    x10       c0                             546  c5                             710 
    x10       c7                             318  c2                             305 
    x10       c1                             514 
    x11       c1                             252  c8                              98 
    x11       c0                             134  c9                             320 
    x11       c2                             841  c7                             127 
    x11       c3                             332  c6                             677 
    x11       c4                             715  c5                             920 
    x11       Obj                            835 
    x12       Obj                            569  c5                             131 
    x12       c3                             326  c1                             662 
    x12       c7                              47  c9                             796 
    x12       c8                             857  c0                             639 
    x12       c6                              54  c2                             881 
    x12       c4                             461 
    x13       c5                             143  c8                             609 
    x13       c3                             634  c7                             221 
    x13       c9                             131  c0                             806 
    x13       c1                             704  c6                             732 
    x13       c2                             183  c4                             776 
    x13       Obj                            795 
    x14       Obj                            860  c4                              68 
    x14       c5                             410  c6                             575 
    x14       c7                             518  c1                             205 
    x14       c2                             647  c0                             150 
    x14       c3                             492  c9                             197 
    x14       c8                             812 
    x15       c9                               2  c1                             869 
    x15       c2                             664  c7                             427 
    x15       c6                             927  c8                             832 
    x15       Obj                           1091  c3                             358 
    x15       c0                             962  c5                             964 
    x15       c4                             648 
    x16       c3                             556  Obj                            368 
    x16       c5                             175  c9                             172 
    x16       c1                             469  c4                             147 
    x16       c7                              11  c6                              86 
    x16       c0                             229  c8                              59 
    x16       c2                             646 
    x17       c7                             415  c3                             532 
    x17       c9                             499  Obj                            817 
    x17       c4                             809  c2                             532 
    x17       c1                             501  c5                             720 
    x17       c6                              91  c0                             273 
    x17       c8                             749 
    x18       c8                             810  c1                             793 
    x18       c5                             518  c6                             924 
    x18       c0                             457  c3                             259 
    x18       c9                             352  Obj                            961 
    x18       c7                             151  c2                             757 
    x18       c4                             547 
    x19       Obj                            711  c5                              58 
    x19       c8                             602  c0                             552 
    x19       c9                             553  c2                             550 
    x19       c6                             405  c3                             852 
    x19       c4                             919  c7                             679 
    x19       c1                             738 
    x20       c1                             403  c7                             274 
    x20       c3                             191  c4                             702 
    x20       Obj                            801  c9                             350 
    x20       c8                             834  c0                             189 
    x20       c5                             328  c2                             316 
    x20       c6                             658 
    x21       c9                             774  c1                             305 
    x21       c2                             243  c4                             173 
    x21       Obj                            859  c5                             729 
    x21       c0                              38  c6                             620 
    x21       c3                             478  c8                             977 
    x21       c7                             494 
    x22       c8                             636  Obj                            567 
    x22       c0                             277  c1                             619 
    x22       c9                             571  c2                             810 
    x22       c5                             467  c7                             199 
    x22       c4                             267  c3                             400 
    x22       c6                             846 
    x23       c8                             585  c6                              39 
    x23       c0                             987  Obj                            939 
    x23       c9                             698  c1                             604 
    x23       c2                             404  c5                             770 
    x23       c7                             810  c4                             104 
    x23       c3                             813 
    x24       c3                             708  c0                             390 
    x24       c6                             976  c9                             986 
    x24       Obj                            950  c1                             676 
    x24       c7                             267  c2                             982 
    x24       c4                             459  c5                             974 
    x24       c8                             583 
    x25       c9                             449  c0                             978 
    x25       c3                             731  c1                             789 
    x25       c7                             892  c8                             246 
    x25       Obj                           1049  c6                             836 
    x25       c5                             735  c4                             910 
    x25       c2                             877 
    x26       Obj                            791  c5                             217 
    x26       c9                             561  c2                             312 
    x26       c0                             734  c3                             742 
    x26       c7                             603  c8                             605 
    x26       c4                             523  c1                             977 
    x26       c6                              42 
    x27       c5                             608  c0                             807 
    x27       c3                             240  Obj                            762 
    x27       c7                             352  c6                             217 
    x27       c1                               1  c8                             888 
    x27       c9                             786  c4                             839 
    x27       c2                             894 
    x28       c1                             777  c9                             402 
    x28       Obj                            491  c7                              77 
    x28       c6                              87  c2                             185 
    x28       c3                             544  c8                             512 
    x28       c0                             261  c4                             895 
    x28       c5                             774 
    x29       c8                             352  c9                             528 
    x29       c7                             259  c6                             220 
    x29       c0                             833  Obj                            753 
    x29       c4                             826  c3                             188 
    x29       c2                             122  c5                             880 
    x29       c1                             973 
    x30       c0                             584  c6                             580 
    x30       c3                             348  c7                              21 
    x30       c1                              43  Obj                            835 
    x30       c4                             849  c8                             831 
    x30       c9                             881  c5                             741 
    x30       c2                             824 
    x31       c7                             107  c4                             745 
    x31       c1                             388  c2                             770 
    x31       c0                             162  Obj                            368 
    x31       c6                             309  c8                              41 
    x31       c3                             302  c5                             159 
    x31       c9                              57 
    x32       c7                             319  c3                             276 
    x32       c4                             116  c6                             402 
    x32       c2                             182  c1                             813 
    x32       c5                             669  c9                             236 
    x32       c8                             492  c0                             440 
    x32       Obj                            882 
    x33       c2                             674  c0                              64 
    x33       c8                             792  c1                             554 
    x33       c3                             204  c9                             576 
    x33       Obj                            830  c4                             666 
    x33       c7                             530  c6                             283 
    x33       c5                             185 
    x34       c4                             271  c6                             210 
    x34       c9                             391  c0                             697 
    x34       c3                             356  c5                             927 
    x34       c7                             244  c2                             614 
    x34       Obj                            809  c1                             424 
    x34       c8                             644 
    x35       c4                             413  c5                             737 
    x35       c9                             889  c3                             634 
    x35       Obj                            885  c7                             844 
    x35       c8                             891  c2                             431 
    x35       c1                             823  c0                             724 
    x35       c6                             588 
    x36       c6                             494  c2                             429 
    x36       c1                             814  c9                              14 
    x36       c7                              91  c8                             697 
    x36       Obj                            955  c5                             660 
    x36       c4                             774  c3                             753 
    x36       c0                             495 
    x37       c4                             331  c9                             323 
    x37       c8                             665  c6                              14 
    x37       c2                             268  c1                             951 
    x37       Obj                            772  c5                             727 
    x37       c7                             441  c0                             323 
    x37       c3                             634 
    x38       c0                             718  Obj                            909 
    x38       c2                              84  c4                             964 
    x38       c1                             337  c6                             979 
    x38       c9                             843  c7                             547 
    x38       c8                             929  c5                             444 
    x38       c3                             488 
    x39       c8                              60  c6                             276 
    x39       Obj                            458  c0                             654 
    x39       c5                             234  c1                             864 
    x39       c7                             831  c2                              52 
    x39       c9                             606  c4                              43 
    x39       c3                             266 
    x40       c3                             153  c9                             309 
    x40       c7                             301  c1                             588 
    x40       c4                             100  c2                             510 
    x40       c6                             605  c0                             184 
    x40       c8                             658  c5                             278 
    x40       Obj                            847 
    x41       Obj                            351  c0                               5 
    x41       c8                             540  c7                              43 
    x41       c4                             631  c1                             668 
    x41       c6                              61  c5                              86 
    x41       c2                             392  c9                             526 
    x41       c3                             218 
    x42       c8                             107  c0                             182 
    x42       c9                             339  c5                             169 
    x42       c7                             146  Obj                            748 
    x42       c3                             579  c6                             429 
    x42       c2                             664  c1                             104 
    x42       c4                             876 
    x43       c1                             135  c8                             392 
    x43       c0                             292  c9                             370 
    x43       c6                             719  c3                             228 
    x43       c4                             926  Obj                            675 
    x43       c5                             240  c2                             215 
    x43       c7                             730 
    x44       c7                             671  Obj                            509 
    x44       c8                             721  c1                             515 
    x44       c2                             175  c0                             207 
    x44       c9                             108  c3                             737 
    x44       c6                             344  c4                             135 
    x44       c5                             514 
    x45       c5                             867  Obj                            990 
    x45       c1                             484  c2                             726 
    x45       c0                             370  c7                             292 
    x45       c4                             809  c9                             637 
    x45       c8                             315  c3                             203 
    x45       c6                             605 
    x46       c8                             254  c3                             768 
    x46       c6                             104  c5                             314 
    x46       c7                             876  c1                             183 
    x46       c2                              85  c9                             321 
    x46       c0                             592  c4                             751 
    x46       Obj                            489 
    x47       c3                             287  c1                             731 
    x47       c2                             650  c0                             145 
    x47       c4                             304  c6                             177 
    x47       c9                             752  c8                             815 
    x47       c5                             139  Obj                            491 
    x47       c7                             131 
    x48       c8                             752  Obj                            706 
    x48       c6                             110  c4                             372 
    x48       c2                             428  c9                             997 
    x48       c7                              98  c0                             735 
    x48       c5                             345  c3                             752 
    x48       c1                             272 
    x49       c5                             497  c7                             687 
    x49       c3                             102  c0                              86 
    x49       c1                             983  c8                             536 
    x49       c9                             209  c4                             474 
    x49       c2                             819  Obj                            796 
    x49       c6                              13 
    x50       c3                             622  c8                             714 
    x50       c9                             181  c4                             338 
    x50       c2                             570  c7                             981 
    x50       c5                             829  c6                              86 
    x50       Obj                            785  c0                             542 
    x50       c1                             129 
    x51       c6                             384  c8                             464 
    x51       c2                             917  c7                             332 
    x51       c4                             882  c1                             496 
    x51       c3                             558  c0                              31 
    x51       c9                               4  c5                             508 
    x51       Obj                            686 
    x52       c3                             265  c8                             999 
    x52       c5                             335  c2                             970 
    x52       c7                              84  c6                              55 
    x52       c1                             333  c4                             513 
    x52       c0                             956  c9                               8 
    x52       Obj                            634 
    x53       c5                             837  c2                             831 
    x53       c6                             905  c0                             204 
    x53       c7                             457  c1                             791 
    x53       c4                             646  c3                             435 
    x53       Obj                            932  c9                             543 
    x53       c8                             651 
    x54       c1                             841  c8                             140 
    x54       c3                             982  c6                             280 
    x54       c5                             786  c0                              87 
    x54       c9                             545  Obj                            555 
    x54       c7                             417  c4                             376 
    x54       c2                             245 
    x55       c5                             990  c4                             184 
    x55       c9                             524  Obj                            949 
    x55       c6                             441  c0                             844 
    x55       c7                            1000  c1                             393 
    x55       c2                             983  c8                             640 
    x55       c3                             484 
    x56       Obj                            926  c4                             314 
    x56       c3                             512  c5                             898 
    x56       c8                             501  c0                             684 
    x56       c2                             658  c9                             959 
    x56       c1                              85  c7                             660 
    x56       c6                             384 
    x57       c6                             792  c5                             555 
    x57       c9                             168  c1                             946 
    x57       c8                             150  Obj                            932 
    x57       c2                             703  c3                              68 
    x57       c7                             746  c4                             533 
    x57       c0                              63 
    x58       c8                             325  c9                             255 
    x58       c0                             485  c4                             599 
    x58       Obj                            719  c3                              66 
    x58       c2                             445  c1                             812 
    x58       c5                             103  c6                             967 
    x58       c7                             636 
    x59       c5                             719  c3                              31 
    x59       c7                             194  c6                             215 
    x59       c9                             281  c1                             925 
    x59       c4                             158  c2                             690 
    x59       c8                             736  c0                             499 
    x59       Obj                            534 
    x60       c6                             956  c1                             318 
    x60       c5                               3  c9                              61 
    x60       c8                             111  c0                              80 
    x60       c2                             157  c4                             921 
    x60       Obj                            544  c7                             903 
    x60       c3                             550 
    x61       c6                             542  c5                             868 
    x61       c2                             490  Obj                            999 
    x61       c9                             200  c8                             889 
    x61       c7                             937  c4                             771 
    x61       c3                             270  c1                             396 
    x61       c0                             720 
    x62       c2                             713  c6                             703 
    x62       c9                               3  c0                             243 
    x62       c5                              13  c8                             533 
    x62       c7                             422  c4                             738 
    x62       Obj                            729  c1                             967 
    x62       c3                             637 
    x63       Obj                            565  c4                             173 
    x63       c6                             234  c7                             617 
    x63       c2                             465  c8                             417 
    x63       c5                             941  c3                             447 
    x63       c9                             212  c0                             319 
    x63       c1                             987 
    x64       c2                             620  c7                             632 
    x64       c5                             855  c6                             527 
    x64       c9                             634  c8                             825 
    x64       c1                             793  c0                             782 
    x64       c3                             572  Obj                           1073 
    x64       c4                             598 
    x65       c4                             647  c8                             948 
    x65       Obj                            639  c2                             918 
    x65       c3                             706  c6                             832 
    x65       c5                             334  c7                             516 
    x65       c1                             266  c9                             415 
    x65       c0                             571 
    x66       Obj                            722  c2                              52 
    x66       c6                             244  c9                             503 
    x66       c3                             666  c1                             631 
    x66       c5                             564  c7                             731 
    x66       c0                             972  c4                             546 
    x66       c8                             221 
    x67       c8                             113  c3                             100 
    x67       c7                              78  c5                             689 
    x67       c2                             786  c9                             545 
    x67       Obj                            641  c1                             493 
    x67       c4                             219  c0                              72 
    x67       c6                             592 
    x68       c7                             233  Obj                            527 
    x68       c9                             608  c0                             612 
    x68       c1                             707  c2                             988 
    x68       c6                             666  c4                             708 
    x68       c5                             452  c8                              96 
    x68       c3                             129 
    x69       c7                              42  c3                             792 
    x69       c0                             458  c1                             982 
    x69       c4                             972  c8                             936 
    x69       c5                             394  c9                             313 
    x69       Obj                            655  c6                             387 
    x69       c2                             297 
    x70       c7                             187  c6                             889 
    x70       c3                             510  c5                             615 
    x70       c8                             719  c2                             166 
    x70       c9                             930  Obj                            868 
    x70       c4                             475  c0                             395 
    x70       c1                             949 
    x71       c4                             614  c8                             547 
    x71       c3                             833  c0                              19 
    x71       c1                             382  c7                             922 
    x71       c6                             455  Obj                            786 
    x71       c5                             597  c2                             923 
    x71       c9                             820 
    x72       c0                             764  c3                             860 
    x72       Obj                            558  c1                             297 
    x72       c8                             131  c7                              28 
    x72       c5                             116  c2                             396 
    x72       c6                             668  c4                             136 
    x72       c9                             282 
    x73       c7                             834  c2                             831 
    x73       Obj                            760  c9                             686 
    x73       c1                              30  c3                             622 
    x73       c5                             852  c8                             236 
    x73       c6                             219  c0                             902 
    x73       c4                             889 
    x74       c2                             193  c5                             615 
    x74       c7                             350  c6                             524 
    x74       c8                             439  c9                             336 
    x74       Obj                            845  c0                               6 
    x74       c3                             956  c4                             471 
    x74       c1                              14 
    x75       c6                             974  c7                             623 
    x75       c5                             636  c9                              86 
    x75       c8                             544  c2                             310 
    x75       Obj                            663  c4                             775 
    x75       c1                             658  c3                             122 
    x75       c0                             187 
    x76       Obj                           1047  c5                             588 
    x76       c7                             688  c4                             271 
    x76       c2                             575  c6                             855 
    x76       c0                             779  c8                             645 
    x76       c9                             321  c3                             336 
    x76       c1                             806 
    x77       c1                             763  c5                             917 
    x77       c8                             889  c2                             702 
    x77       Obj                            659  c4                             816 
    x77       c3                             212  c9                             896 
    x77       c7                             479  c0                             178 
    x77       c6                             308 
    x78       c3                             397  c4                             709 
    x78       c8                             806  Obj                            623 
    x78       c6                              91  c2                             560 
    x78       c0                             714  c7                             541 
    x78       c9                             247  c1                             763 
    x78       c5                              40 
    x79       c5                             118  c9                             749 
    x79       c4                             998  c1                             850 
    x79       c8                             975  c0                             450 
    x79       c2                             452  c3                              14 
    x79       c6                             166  Obj                            723 
    x79       c7                             525 
    x80       c7                             116  c2                             887 
    x80       c6                             310  Obj                            726 
    x80       c5                             153  c9                             310 
    x80       c8                             491  c3                             411 
    x80       c0                             768  c4                             750 
    x80       c1                             340 
    x81       c3                             968  c8                             972 
    x81       c6                             235  c4                             673 
    x81       c0                             454  c9                             849 
    x81       Obj                            570  c1                             178 
    x81       c5                             576  c7                              26 
    x81       c2                             194 
    x82       c2                              87  c1                              30 
    x82       c0                              37  c8                              90 
    x82       c9                             551  c6                             725 
    x82       c3                             772  c7                             825 
    x82       c5                             902  c4                             887 
    x82       Obj                            510 
    x83       Obj                            666  c3                             812 
    x83       c8                             389  c5                             696 
    x83       c4                             409  c1                             204 
    x83       c2                             643  c7                             689 
    x83       c6                             356  c0                             934 
    x83       c9                             550 
    x84       c2                             735  c5                             335 
    x84       c4                             257  c7                             884 
    x84       c6                             136  Obj                            824 
    x84       c9                             991  c0                             796 
    x84       c1                             155  c8                             205 
    x84       c3                             757 
    x85       c0                             572  c5                             254 
    x85       c3                             263  c6                             434 
    x85       c7                             558  c8                             430 
    x85       Obj                            498  c9                               8 
    x85       c1                              69  c2                             546 
    x85       c4                             172 
    x86       c7                             389  Obj                            738 
    x86       c0                             909  c4                             471 
    x86       c1                             655  c3                             402 
    x86       c6                             784  c2                             666 
    x86       c8                             183  c9                             696 
    x86       c5                             285 
    x87       c0                             803  c7                               5 
    x87       c6                              92  Obj                            663 
    x87       c2                             943  c9                             452 
    x87       c5                              69  c1                             269 
    x87       c4                             556  c3                             879 
    x87       c8                             205 
    x88       c2                             279  c1                             133 
    x88       c4                             705  c6                             222 
    x88       c5                             672  Obj                            756 
    x88       c3                             656  c8                             583 
    x88       c9                             746  c0                             885 
    x88       c7                             759 
    x89       c1                             807  c9                              55 
    x89       c2                             327  c7                             625 
    x89       c0                             235  c8                             422 
    x89       Obj                            653  c5                             537 
    x89       c6                             733  c4                             297 
    x89       c3                             114 
    x90       c7                             666  c3                              54 
    x90       Obj                            443  c6                             694 
    x90       c0                             556  c8                             116 
    x90       c1                             217  c2                             263 
    x90       c4                             703  c9                             704 
    x90       c5                             107 
    x91       c5                             943  c6                             412 
    x91       c0                             172  c4                             975 
    x91       c7                             978  c2                             537 
    x91       c9                             614  c8                             998 
    x91       Obj                            983  c1                             846 
    x91       c3                             682 
    x92       c0                             714  c4                             310 
    x92       c1                             525  c9                             523 
    x92       c8                             677  c6                              75 
    x92       c3                             132  c5                             831 
    x92       Obj                            858  c2                              62 
    x92       c7                             765 
    x93       c0                             327  c8                             833 
    x93       Obj                            529  c9                              86 
    x93       c4                               8  c1                             673 
    x93       c5                             283  c3                             220 
    x93       c6                             784  c7                             479 
    x93       c2                             272 
    x94       c0                             816  c9                              43 
    x94       Obj                            487  c4                             946 
    x94       c8                             117  c1                              32 
    x94       c6                             431  c7                             326 
    x94       c3                             570  c5                             207 
    x94       c2                             635 
    x95       Obj                            614  c1                             135 
    x95       c3                             290  c9                              66 
    x95       c4                             362  c0                             106 
    x95       c6                             854  c5                             475 
    x95       c8                             527  c2                             371 
    x95       c7                             950 
    x96       c8                             840  c3                             624 
    x96       c9                             605  c5                             946 
    x96       c4                             343  c0                              79 
    x96       c6                              56  c7                             408 
    x96       c2                             473  Obj                            593 
    x96       c1                             875 
    x97       c1                             767  c3                             837 
    x97       c4                             855  c9                             173 
    x97       c6                             565  c7                             358 
    x97       c0                              45  Obj                            862 
    x97       c2                             583  c8                              39 
    x97       c5                             277 
    x98       c6                             821  Obj                            610 
    x98       c2                             358  c9                             600 
    x98       c5                             638  c0                             148 
    x98       c7                             379  c4                             238 
    x98       c8                             876  c1                             927 
    x98       c3                             486 
    x99       c3                             758  c4                             497 
    x99       c5                             872  c2                             511 
    x99       c8                             811  Obj                            672 
    x99       c0                             864  c7                             493 
    x99       c6                             299  c1                              46 
    x99       c9                             195 
    INTEND    'MARKER'                            'INTEND'                           
RHS
    RHS       c0                           11707  c1                           13635 
    RHS       c2                           12482  c3                           12083 
    RHS       c4                           13604  c5                           13138 
    RHS       c6                           11558  c7                           11625 
    RHS       c8                           13137  c9                           11240 
BOUNDS
 BV Bound     x0                                 
 BV Bound     x1                                 
 BV Bound     x2                                 
 BV Bound     x3                                 
 BV Bound     x4                                 
 BV Bound     x5                                 
 BV Bound     x6                                 
 BV Bound     x7                                 
 BV Bound     x8                                 
 BV Bound     x9                                 
 BV Bound     x10                                
 BV Bound     x11                                
 BV Bound     x12                                
 BV Bound     x13                                
 BV Bound     x14                                
 BV Bound     x15                                
 BV Bound     x16                                
 BV Bound     x17                                
 BV Bound     x18                                
 BV Bound     x19                                
 BV Bound     x20                                
 BV Bound     x21                                
 BV Bound     x22                                
 BV Bound     x23                                
 BV Bound     x24                                
 BV Bound     x25                                
 BV Bound     x26                                
 BV Bound     x27                                
 BV Bound     x28                                
 BV Bound     x29                                
 BV Bound     x30                                
 BV Bound     x31                                
 BV Bound     x32                                
 BV Bound     x33                                
 BV Bound     x34                                
 BV Bound     x35                                
 BV Bound     x36                                
 BV Bound     x37                                
 BV Bound     x38                                
 BV Bound     x39                                
 BV Bound     x40                                
 BV Bound     x41                                
 BV Bound     x42                                
 BV Bound     x43                                
 BV Bound     x44                                
 BV Bound     x45                                
 BV Bound     x46                                
 BV Bound     x47                                
 BV Bound     x48                                
 BV Bound     x49                                
 BV Bound     x50                                
 BV Bound     x51                                
 BV Bound     x52                                
 BV Bound     x53                                
 BV Bound     x54                                
 BV Bound     x55                                
 BV Bound     x56                                
 BV Bound     x57                                
 BV Bound     x58                                
 BV Bound     x59                                
 BV Bound     x60                                
 BV Bound     x61                                
 BV Bound     x62                                
 BV Bound     x63                                
 BV Bound     x64                                
 BV Bound     x65                                
 BV Bound     x66                                
 BV Bound     x67                                
 BV Bound     x68                                
 BV Bound     x69                                
 BV Bound     x70                                
 BV Bound     x71                                
 BV Bound     x72                                
 BV Bound     x73                                
 BV Bound     x74                                
 BV Bound     x75                                
 BV Bound     x76                                
 BV Bound     x77                                
 BV Bound     x78                                
 BV Bound     x79                                
 BV Bound     x80                                
 BV Bound     x81                                
 BV Bound     x82                                
 BV Bound     x83                                
 BV Bound     x84                                
 BV Bound     x85                                
 BV Bound     x86                                
 BV Bound     x87                                
 BV Bound     x88                                
 BV Bound     x89                                
 BV Bound     x90                                
 BV Bound     x91                                
 BV Bound     x92                                
 BV Bound     x93                                
 BV Bound     x94                                
 BV Bound     x95                                
 BV Bound     x96                                
 BV Bound     x97                                
 BV Bound     x98                                
 BV Bound     x99                                
ENDATA