* SCIP STATISTICS
*   Problem name     : mknap_29
*   Variables        : 100 (100 binary, 0 integer, 0 implicit integer, 0 continuous)
*   Constraints      : 10
NAME          mknap_29
OBJSENSE
  MAX
ROWS
 N  Obj 
 L  c0 
 L  c1 
 L  c2 
 L  c3 
 L  c4 
 L  c5 
 L  c6 
 L  c7 
 L  c8 
 L  c9 
COLUMNS
    INTSTART  'MARKER'                            'INTORG'                           
    x0        Obj                            594  c5                             510 
    x0        c4                             332  c6                              53 
    x0        c3                             438  c7                             964 
    x0        c2                             175  c8                              91 
    x0        c1                             136  c9                             809 
    x0        c0                             669 
    x1        Obj                            635  c5                             264 
    x1        c4                             170  c6                             753 
    x1        c3                             730  c7                             989 
    x1        c2                             152  c8                             727 
    x1        c1                             958  c9                             753 
    x1        c0                             147 
    x2        c9                             842  c5                             262 
    x2        Obj                            719  c3                              84 
    x2        c1                             383  c4                             614 
    x2        c0                              95  c8                             607 
    x2        c7                             936  c2                             587 
    x2        c6                             167 
    x3        c9                             864  c8                             698 
    x3        c2                             184  c1                             525 
    x3        c6                             825  c7                              41 
    x3        c3                             938  Obj                            961 
    x3        c4                             789  c0                             407 
    x3        c5                             713 
    x4        c4                             984  c3                             473 
    x4        c0                             769  c6                             235 
    x4        Obj                            582  c1                             549 
    x4        c7                              85  c2                             363 
    x4        c5                              49  c8                             988 
    x4        c9                             620 
    x5        c8                             565  c3                              11 
    x5        c1                             327  c5                             517 
    x5        c6                             386  c7                             567 
    x5        Obj                            856  c4                             703 
    x5        c0                             207  c9                             298 
    x5        c2                             421 
    x6        Obj                            656  c3                             738 
    x6        c8                             515  c4                             291 
    x6        c0                             981  c7                             383 
    x6        c5                             172  c9                             386 
    x6        c1                             505  c2                             888 
    x6        c6                             993 
    x7        c9                             173  c5                             162 
    x7        c1                             715  c7                             590 
    x7        c2                             220  c4                             180 
    x7        Obj                            692  c8                             742 
    x7        c0                             412  c3                              41 
    x7        c6                             107 
    x8        c5                             485  c7                             352 
    x8        c2                             985  c4                             637 
    x8        c1                             465  c6                             557 
    x8        c0                             903  c8                              48 
    x8        Obj                            817  c3                             432 
    x8        c9                             205 
    x9        c9                             792  c4                             643 
    x9        c8                             719  c6                              32 
    x9        c0                             334  Obj                            722 
    x9        c1                             967  c3                             307 
    x9        c7                              96  c5                             328 
    x9        c2                             113 
    x10       c9                             704  c3                             140 
    x10       Obj                            802  c4                             776 
    x10       c8                             631  c6                              62 
    x10       c0                               3  c5                             118 
    x10       c7                             422  c2                             736 
    x10       c1                             114 
    x11       c1                             646  c8                             691 
    x11       c0                             215  c9                             754 
    x11       c2                             922  c7                             533 
    x11       c3                             341  c6                             165 
    x11       c4                             768  c5                             833 
    x11       Obj                            630 
    x12       Obj                            600  c5                             668 
    x12       c3                             146  c1                             868 
    x12       c7                             832  c9                             393 
    x12       c8                             618  c0                             270 
    x12       c6                             981  c2                             502 
    x12       c4                             291 
    x13       c5                             963  c8                             936 
    x13       c3                             213  c7                             779 
    x13       c9                             273  c0                              86 
    x13       c1                             836  c6                             396 
    x13       c2                             226  c4                             513 
    x13       Obj                            711 
    x14       Obj                            871  c4                             661 
    x14       c5                             731  c6                             713 
    x14       c7                              56  c1                             319 
    x14       c2                             707  c0                             476 
    x14       c3                             245  c9                             421 
    x14       c8                             291 
    x15       c9                             472  c1                             739 
    x15       c2                             299  c7                             464 
    x15       c6                              70  c8                              80 
    x15       Obj                            701  c3                             386 
    x15       c0                             168  c5                             414 
    x15       c4                             281 
    x16       c3                             532  Obj                            404 
    x16       c5                              29  c9                             618 
    x16       c1                             377  c4                              33 
    x16       c7                               6  c6                             461 
    x16       c0                             345  c8                             245 
    x16       c2                              55 
    x17       c7                             927  c3                             268 
    x17       c9                             296  Obj                            769 
    x17       c4                             982  c2                             786 
    x17       c1                              85  c5                             840 
    x17       c6                             438  c0                             252 
    x17       c8                              45 
    x18       c8                             751  c1                             767 
    x18       c5                             886  c6                             253 
    x18       c0                             465  c3                              88 
    x18       c9                             677  Obj                            967 
    x18       c7                             973  c2                             338 
    x18       c4                             583 
    x19       Obj                            960  c5                             624 
    x19       c8                             998  c0                             457 
    x19       c9                             883  c2                             352 
    x19       c6                             134  c3                             725 
    x19       c4                             153  c7                             686 
    x19       c1                             831 
    x20       c1                             302  c7                             563 
    x20       c3                             422  c4                             950 
    x20       Obj                            842  c9                             674 
    x20       c8                             289  c0                              82 
    x20       c5                             415  c2                             930 
    x20       c6                             443 
    x21       c9                             252  c1                             778 
    x21       c2                             625  c4                             276 
    x21       Obj                            801  c5                             439 
    x21       c0                             372  c6                             235 
    x21       c3                             730  c8                             167 
    x21       c7                             262 
    x22       c8                             942  Obj                           1086 
    x22       c0                             440  c1                             847 
    x22       c9                             925  c2                             510 
    x22       c5                             774  c7                             988 
    x22       c4                             548  c3                             464 
    x22       c6                             431 
    x23       c8                             727  c6                             163 
    x23       c0                             760  Obj                            681 
    x23       c9                             586  c1                             363 
    x23       c2                             645  c5                             165 
    x23       c7                             987  c4                             979 
    x23       c3                             327 
    x24       c3                             809  c0                             581 
    x24       c6                             501  c9                              65 
    x24       Obj                            559  c1                             275 
    x24       c7                              53  c2                             361 
    x24       c4                             861  c5                             767 
    x24       c8                             134 
    x25       c9                              32  c0                              84 
    x25       c3                             183  c1                             247 
    x25       c7                             641  c8                             873 
    x25       Obj                            498  c6                             132 
    x25       c5                             965  c4                             848 
    x25       c2                             167 
    x26       Obj                            692  c5                             528 
    x26       c9                             946  c2                             560 
    x26       c0                              60  c3                             723 
    x26       c7                             716  c8                             761 
    x26       c4                             972  c1                             687 
    x26       c6                             459 
    x27       c5                             847  c0                             474 
    x27       c3                             360  Obj                            823 
    x27       c7                             616  c6                             590 
    x27       c1                              32  c8                             391 
    x27       c9                             868  c4                             148 
    x27       c2                             471 
    x28       c1                             530  c9                             671 
    x28       Obj                            689  c7                             378 
    x28       c6                              16  c2                             437 
    x28       c3                             888  c8                             642 
    x28       c0                             896  c4                             426 
    x28       c5                             361 
    x29       c8                             286  c9                             392 
    x29       c7                             585  c6                             655 
    x29       c0                             968  Obj                            707 
    x29       c4                             925  c3                             512 
    x29       c2                             211  c5                             647 
    x29       c1                             804 
    x30       c0                             955  c6                             623 
    x30       c3                             926  c7                               5 
    x30       c1                             245  Obj                           1013 
    x30       c4                             776  c8                             572 
    x30       c9                             530  c5                             756 
    x30       c2                              83 
    x31       c7                             280  c4                             515 
    x31       c1                             714  c2                             735 
    x31       c0                             319  Obj                            816 
    x31       c6                             247  c8                             923 
    x31       c3                             267  c5                             391 
    x31       c9                             267 
    x32       c7                             134  c3                             406 
    x32       c4                             208  c6                             728 
    x32       c2                             576  c1                             811 
    x32       c5                             280  c9                               1 
    x32       c8                             802  c0                              67 
    x32       Obj                            450 
    x33       c2                             526  c0                             403 
    x33       c8                             575  c1                             943 
    x33       c3                             787  c9                             944 
    x33       Obj                            867  c4                             583 
    x33       c7                             797  c6                             652 
    x33       c5                             617 
    x34       c4                             967  c6                             601 
    x34       c9                             372  c0                             233 
    x34       c3                             263  c5                             935 
    x34       c7                             273  c2                             747 
    x34       Obj                            862  c1                             413 
    x34       c8                             763 
    x35       c4                             263  c5                             523 
    x35       c9                             226  c3                             222 
    x35       Obj                            762  c7                             606 
    x35       c8                             612  c2                              67 
    x35       c1                              47  c0                             311 
    x35       c6                             798 
    x36       c6                             718  c2                             297 
    x36       c1                             157  c9                             972 
    x36       c7                             388  c8                             707 
    x36       Obj                            914  c5                             726 
    x36       c4                             326  c3                             489 
    x36       c0                             139 
    x37       c4                             567  c9                             396 
    x37       c8                             695  c6                             383 
    x37       c2                             159  c1                              76 
    x37       Obj                            874  c5                             889 
    x37       c7                             671  c0                             362 
    x37       c3                             268 
    x38       c0                             839  Obj                            986 
    x38       c2                             261  c4                             572 
    x38       c1                             277  c6                             889 
    x38       c9                             454  c7                             513 
    x38       c8                             506  c5                             685 
    x38       c3                             444 
    x39       c8                              66  c6                              60 
    x39       Obj                            597  c0                             984 
    x39       c5                             384  c1                             916 
    x39       c7                             799  c2                             929 
    x39       c9                             445  c4                             325 
    x39       c3                             974 
    x40       c3                             401  c9                             890 
    x40       c7                             998  c1                             995 
    x40       c4                             300  c2                             413 
    x40       c6                             261  c0                              86 
    x40       c8                              86  c5                             106 
    x40       Obj                            778 
    x41       Obj                           1048  c0                             361 
    x41       c8                             607  c7                             893 
    x41       c4                             594  c1                             817 
    x41       c6                             576  c5                             722 
    x41       c2                             582  c9                             607 
    x41       c3                             713 
    x42       c8                             335  c0                             156 
    x42       c9                             114  c5                             676 
    x42       c7                             425  Obj                            662 
    x42       c3                             799  c6                             846 
    x42       c2                              36  c1                             154 
    x42       c4                             425 
    x43       c1                             643  c8                             560 
    x43       c0                             844  c9                             597 
    x43       c6                             341  c3                              44 
    x43       c4                             302  Obj                            854 
    x43       c5                             565  c2                             115 
    x43       c7                             723 
    x44       c7                             517  Obj                            590 
    x44       c8                             164  c1                             572 
    x44       c2                             898  c0                             702 
    x44       c9                             487  c3                             140 
    x44       c6                             931  c4                             849 
    x44       c5                             636 
    x45       c5                             202  Obj                           1063 
    x45       c1                             652  c2                             199 
    x45       c0                             473  c7                             833 
    x45       c4                             968  c9                             613 
    x45       c8                             304  c3                             917 
    x45       c6                             740 
    x46       c8                             296  c3                             486 
    x46       c6                             762  c5                             553 
    x46       c7                             212  c1                             389 
    x46       c2                              62  c9                             344 
    x46       c0                             975  c4                             538 
    x46       Obj                            790 
    x47       c3                             945  c1                             406 
    x47       c2                             281  c0                              45 
    x47       c4                             218  c6                             526 
    x47       c9                             545  c8                             299 
    x47       c5                             341  Obj                            750 
    x47       c7                             363 
    x48       c8                             447  Obj                            712 
    x48       c6                             184  c4                              26 
    x48       c2                              84  c9                             682 
    x48       c7                             919  c0                             782 
    x48       c5                             402  c3                             572 
    x48       c1                             441 
    x49       c5                             834  c7                             975 
    x49       c3                             903  c0                             928 
    x49       c1                             569  c8                             757 
    x49       c9                             111  c4                             709 
    x49       c2                             492  Obj                           1063 
    x49       c6                             105 
    x50       c3                             956  c8                             684 
    x50       c9                              82  c4                             154 
    x50       c2                             331  c7                             878 
    x50       c5                             563  c6                             773 
    x50       Obj                            633  c0                             113 
    x50       c1                             387 
    x51       c6                             374  c8                             610 
    x51       c2                             529  c7                             265 
    x51       c4                              32  c1                              75 
    x51       c3                              19  c0                             392 
    x51       c9                             163  c5                              10 
    x51       Obj                            488 
    x52       c3                             559  c8                             901 
    x52       c5                             624  c2                             203 
    x52       c7                             763  c6                             200 
    x52       c1                             196  c4                             843 
    x52       c0                             566  c9                             772 
    x52       Obj                            918 
    x53       c5                               9  c2                             249 
    x53       c6                             548  c0                             767 
    x53       c7                             330  c1                              37 
    x53       c4                             713  c3                             344 
    x53       Obj                            437  c9                             409 
    x53       c8                             964 
    x54       c1                             616  c8                             483 
    x54       c3                             737  c6                              90 
    x54       c5                              42  c0                             214 
    x54       c9                             257  Obj                            836 
    x54       c7                             323  c4                             758 
    x54       c2                             361 
    x55       c5                             242  c4                             456 
    x55       c9                             479  Obj                            874 
    x55       c6                             814  c0                             746 
    x55       c7                             554  c1                             165 
    x55       c2                             711  c8                             637 
    x55       c3                             469 
    x56       Obj                            988  c4                             365 
    x56       c3                             525  c5                             826 
    x56       c8                             435  c0                             694 
    x56       c2                             818  c9                             731 
    x56       c1                             742  c7                             397 
    x56       c6                             177 
    x57       c6                              75  c5                             815 
    x57       c9                             781  c1                             124 
    x57       c8                             832  Obj                            723 
    x57       c2                             373  c3                             543 
    x57       c7                             293  c4                             911 
    x57       c0                             289 
    x58       c8                             245  c9                             827 
    x58       c0                             565  c4                             771 
    x58       Obj                            900  c3                             154 
    x58       c2                             351  c1                             529 
    x58       c5                             350  c6                             452 
    x58       c7                             794 
    x59       c5                             315  c3                             583 
    x59       c7                              29  c6                             176 
    x59       c9                             284  c1                             550 
    x59       c4                             902  c2                              68 
    x59       c8                             677  c0                             485 
    x59       Obj                            537 
    x60       c6                             947  c1                             613 
    x60       c5                             121  c9                             155 
    x60       c8                             845  c0                              28 
    x60       c2                              25  c4                             451 
    x60       Obj                            814  c7                             970 
    x60       c3                             623 
    x61       c6                             722  c5                             826 
    x61       c2                             429  Obj                            897 
    x61       c9                               6  c8                             408 
    x61       c7                             209  c4                             272 
    x61       c3                             965  c1                             378 
    x61       c0                             817 
    x62       c2                             672  c6                             958 
    x62       c9                               9  c0                             348 
    x62       c5                             599  c8                             107 
    x62       c7                             185  c4                             417 
    x62       Obj                            778  c1                              75 
    x62       c3                             673 
    x63       Obj                            766  c4                             271 
    x63       c6                             226  c7                             400 
    x63       c2                             160  c8                             288 
    x63       c5                             941  c3                             187 
    x63       c9                             240  c0                             233 
    x63       c1                             838 
    x64       c2                             533  c7                              10 
    x64       c5                             166  c6                             289 
    x64       c9                             537  c8                             439 
    x64       c1                             758  c0                             437 
    x64       c3                             572  Obj                            492 
    x64       c4                             716 
    x65       c4                             198  c8                             645 
    x65       Obj                            690  c2                             105 
    x65       c3                             815  c6                             414 
    x65       c5                             883  c7                             484 
    x65       c1                             644  c9                              36 
    x65       c0                             193 
    x66       Obj                            685  c2                             563 
    x66       c6                             117  c9                             729 
    x66       c3                             467  c1                             646 
    x66       c5                              31  c7                             535 
    x66       c0                              21  c4                              20 
    x66       c8                             407 
    x67       c8                             968  c3                             770 
    x67       c7                             254  c5                             700 
    x67       c2                             752  c9                             118 
    x67       Obj                            630  c1                             858 
    x67       c4                             369  c0                             683 
    x67       c6                             607 
    x68       c7                             273  Obj                            533 
    x68       c9                              95  c0                             445 
    x68       c1                             224  c2                             988 
    x68       c6                             380  c4                             512 
    x68       c5                             530  c8                             794 
    x68       c3                              74 
    x69       c7                             820  c3                              54 
    x69       c0                             626  c1                             588 
    x69       c4                             503  c8                             189 
    x69       c5                             261  c9                             426 
    x69       Obj                            687  c6                             514 
    x69       c2                             971 
    x70       c7                             292  c6                              38 
    x70       c3                             235  c5                             881 
    x70       c8                             884  c2                             788 
    x70       c9                             265  Obj                            947 
    x70       c4                             485  c0                             294 
    x70       c1                             681 
    x71       c4                             596  c8                             352 
    x71       c3                             338  c0                             861 
    x71       c1                             149  c7                             115 
    x71       c6                             753  Obj                            572 
    x71       c5                             386  c2                             269 
    x71       c9                             542 
    x72       c0                             208  c3                             206 
    x72       Obj                            927  c1                             804 
    x72       c8                             351  c7                             301 
    x72       c5                             641  c2                             691 
    x72       c6                             778  c4                             979 
    x72       c9                             318 
    x73       c7                             343  c2                             348 
    x73       Obj                            643  c9                             521 
    x73       c1                             742  c3                             480 
    x73       c5                             867  c8                             651 
    x73       c6                             429  c0                             918 
    x73       c4                             423 
    x74       c2                             260  c5                             656 
    x74       c7                             377  c6                             126 
    x74       c8                             997  c9                             310 
    x74       Obj                            691  c0                             835 
    x74       c3                             601  c4                              45 
    x74       c1                             548 
    x75       c6                              72  c7                             475 
    x75       c5                             398  c9                              64 
    x75       c8                             462  c2                             322 
    x75       Obj                            647  c4                             114 
    x75       c1                             272  c3                             265 
    x75       c0                             219 
    x76       Obj                            800  c5                             370 
    x76       c7                              69  c4                             322 
    x76       c2                             851  c6                             857 
    x76       c0                             732  c8                             365 
    x76       c9                              47  c3                             917 
    x76       c1                             286 
    x77       c1                             814  c5                             222 
    x77       c8                             131  c2                             645 
    x77       Obj                            821  c4                             917 
    x77       c3                             589  c9                             979 
    x77       c7                             242  c0                             223 
    x77       c6                             152 
    x78       c3                             210  c4                             541 
    x78       c8                             759  Obj                            940 
    x78       c6                             694  c2                             378 
    x78       c0                             564  c7                             926 
    x78       c9                             160  c1                             376 
    x78       c5                             871 
    x79       c5                             591  c9                             913 
    x79       c4                             248  c1                             689 
    x79       c8                             495  c0                             258 
    x79       c2                             340  c3                              62 
    x79       c6                             545  Obj                            553 
    x79       c7                             822 
    x80       c7                             661  c2                             543 
    x80       c6                             526  Obj                            755 
    x80       c5                             800  c9                             951 
    x80       c8                             667  c3                             254 
    x80       c0                              36  c4                              81 
    x80       c1                             581 
    x81       c3                             369  c8                             438 
    x81       c6                              72  c4                             201 
    x81       c0                             669  c9                             542 
    x81       Obj                           1009  c1                             997 
    x81       c5                             905  c7                             739 
    x81       c2                             997 
    x82       c2                             470  c1                             623 
    x82       c0                             126  c8                              46 
    x82       c9                             454  c6                             211 
    x82       c3                             262  c7                             984 
    x82       c5                             133  c4                             214 
    x82       Obj                            756 
    x83       Obj                            375  c3                             564 
    x83       c8                             165  c5                             127 
    x83       c4                             249  c1                             124 
    x83       c2                             863  c7                              37 
    x83       c6                              23  c0                             862 
    x83       c9                              33 
    x84       c2                             111  c5                              85 
    x84       c4                             304  c7                             643 
    x84       c6                             692  Obj                            352 
    x84       c9                               6  c0                             373 
    x84       c1                             514  c8                              93 
    x84       c3                             166 
    x85       c0                             170  c5                             261 
    x85       c3                             916  c6                             656 
    x85       c7                             519  c8                             514 
    x85       Obj                            907  c9                             406 
    x85       c1                             672  c2                             631 
    x85       c4                              58 
    x86       c7                             239  Obj                            741 
    x86       c0                              98  c4                             404 
    x86       c1                             419  c3                             412 
    x86       c6                             535  c2                             265 
    x86       c8                             352  c9                             272 
    x86       c5                             508 
    x87       c0                             434  c7                             264 
    x87       c6                             578  Obj                            621 
    x87       c2                             356  c9                             218 
    x87       c5                             824  c1                             436 
    x87       c4                             231  c3                             517 
    x87       c8                             681 
    x88       c2                             570  c1                             867 
    x88       c4                             168  c6                             845 
    x88       c5                             787  Obj                            519 
    x88       c3                             617  c8                              23 
    x88       c9                             422  c0                             174 
    x88       c7                             657 
    x89       c1                              47  c9                             705 
    x89       c2                             473  c7                             426 
    x89       c0                             886  c8                             870 
    x89       Obj                           1067  c5                             668 
    x89       c6                             804  c4                             786 
    x89       c3                             771 
    x90       c7                             168  c3                             637 
    x90       Obj                            683  c6                             937 
    x90       c0                             680  c8                             308 
    x90       c1                             344  c2                             679 
    x90       c4                             970  c9                             456 
    x90       c5                              77 
    x91       c5                             679  c6                             658 
    x91       c0                             133  c4                             809 
    x91       c7                             215  c2                             692 
    x91       c9                             160  c8                             937 
    x91       Obj                            516  c1                             144 
    x91       c3                             144 
    x92       c0                             338  c4                             346 
    x92       c1                             692  c9                             340 
    x92       c8                             954  c6                             930 
    x92       c3                             280  c5                             530 
    x92       Obj                            798  c2                             292 
    x92       c7                             112 
    x93       c0                             825  c8                             425 
    x93       Obj                            776  c9                              17 
    x93       c4                             421  c1                             990 
    x93       c5                             662  c3                             333 
    x93       c6                             893  c7                             898 
    x93       c2                              68 
    x94       c0                             242  c9                             976 
    x94       Obj                            924  c4                             691 
    x94       c8                             552  c1                             265 
    x94       c6                             629  c7                             223 
    x94       c3                              11  c5                             534 
    x94       c2                             767 
    x95       Obj                            545  c1                             661 
    x95       c3                             691  c9                              25 
    x95       c4                             411  c0                             118 
    x95       c6                             626  c5                             922 
    x95       c8                             424  c2                              59 
    x95       c7                             709 
    x96       c8                             104  c3                             304 
    x96       c9                             577  c5                             737 
    x96       c4                             714  c0                             389 
    x96       c6                             546  c7                             937 
    x96       c2                             221  Obj                            644 
    x96       c1                             489 
    x97       c1                             677  c3                              37 
    x97       c4                             550  c9                             621 
    x97       c6                             128  c7                             610 
    x97       c0                             140  Obj                            876 
    x97       c2                             447  c8                             456 
    x97       c5                             933 
    x98       c6                             763  Obj                            893 
    x98       c2                             313  c9                             434 
    x98       c5                             343  c0                             145 
    x98       c7                             475  c4                             453 
    x98       c8                             604  c1                             451 
    x98       c3                             336 
    x99       c3                             823  c4                             456 
    x99       c5                             579  c2                               5 
    x99       c8                              88  Obj                            797 
    x99       c0                             209  c7                             851 
    x99       c6                             605  c1                             215 
    x99       c9                             348 
    INTEND    'MARKER'                            'INTEND'                           
RHS
    RHS       c0                           32372  c1                           38120 
    RHS       c2                           33282  c3                           34572 
    RHS       c4                           37627  c5                           39398 
    RHS       c6                           35498  c7                           38167 
    RHS       c8                           38985  c9                           34094 
BOUNDS
 BV Bound     x0                                 
 BV Bound     x1                                 
 BV Bound     x2                                 
 BV Bound     x3                                 
 BV Bound     x4                                 
 BV Bound     x5                                 
 BV Bound     x6                                 
 BV Bound     x7                                 
 BV Bound     x8                                 
 BV Bound     x9                                 
 BV Bound     x10                                
 BV Bound     x11                                
 BV Bound     x12                                
 BV Bound     x13                                
 BV Bound     x14                                
 BV Bound     x15                                
 BV Bound     x16                                
 BV Bound     x17                                
 BV Bound     x18                                
 BV Bound     x19                                
 BV Bound     x20                                
 BV Bound     x21                                
 BV Bound     x22                                
 BV Bound     x23                                
 BV Bound     x24                                
 BV Bound     x25                                
 BV Bound     x26                                
 BV Bound     x27                                
 BV Bound     x28                                
 BV Bound     x29                                
 BV Bound     x30                                
 BV Bound     x31                                
 BV Bound     x32                                
 BV Bound     x33                                
 BV Bound     x34                                
 BV Bound     x35                                
 BV Bound     x36                                
 BV Bound     x37                                
 BV Bound     x38                                
 BV Bound     x39                                
 BV Bound     x40                                
 BV Bound     x41                                
 BV Bound     x42                                
 BV Bound     x43                                
 BV Bound     x44                                
 BV Bound     x45                                
 BV Bound     x46                                
 BV Bound     x47                                
 BV Bound     x48                                
 BV Bound     x49                                
 BV Bound     x50                                
 BV Bound     x51                                
 BV Bound     x52                                
 BV Bound     x53                                
 BV Bound     x54                                
 BV Bound     x55                                
 BV Bound     x56                                
 BV Bound     x57                                
 BV Bound     x58                                
 BV Bound     x59                                
 BV Bound     x60                                
 BV Bound     x61                                
 BV Bound     x62                                
 BV Bound     x63                                
 BV Bound     x64                                
 BV Bound     x65                                
 BV Bound     x66                                
 BV Bound     x67                                
 BV Bound     x68                                
 BV Bound     x69                                
 BV Bound     x70                                
 BV Bound     x71                                
 BV Bound     x72                                
 BV Bound     x73                                
 BV Bound     x74                                
 BV Bound     x75                                
 BV Bound     x76                                
 BV Bound     x77                                
 BV Bound     x78                                
 BV Bound     x79                                
 BV Bound     x80                                
 BV Bound     x81                                
 BV Bound     x82                                
 BV Bound     x83                                
 BV Bound     x84                                
 BV Bound     x85                                
 BV Bound     x86                                
 BV Bound     x87                                
 BV Bound     x88                                
 BV Bound     x89                                
 BV Bound     x90                                
 BV Bound     x91                                
 BV Bound     x92                                
 BV Bound     x93                                
 BV Bound     x94                                
 BV Bound     x95                                
 BV Bound     x96                                
 BV Bound     x97                                
 BV Bound     x98                                
 BV Bound     x99                                
ENDATA