* SCIP STATISTICS
*   Problem name     : mknap_13
*   Variables        : 100 (100 binary, 0 integer, 0 implicit integer, 0 continuous)
*   Constraints      : 10
NAME          mknap_13
OBJSENSE
  MAX
ROWS
 N  Obj 
 L  c0 
 L  c1 
 L  c2 
 L  c3 
 L  c4 
 L  c5 
 L  c6 
 L  c7 
 L  c8 
 L  c9 
COLUMNS
    INTSTART  'MARKER'                            'INTORG'                           
    x0        Obj                            845  c5                             508 
    x0        c4                             654  c6                             252 
    x0        c3                             674  c7                              75 
    x0        c2                             386  c8                             903 
    x0        c1                             386  c9                             625 
    x0        c0                             473 
    x1        Obj                            791  c5                             215 
    x1        c4                             567  c6                             898 
    x1        c3                             915  c7                             253 
    x1        c2                             260  c8                              24 
    x1        c1                             459  c9                             414 
    x1        c0                             329 
    x2        c9                             527  c5                             648 
    x2        Obj                           1028  c3                              64 
    x2        c1                             939  c4                             899 
    x2        c0                             827  c8                             950 
    x2        c7                             496  c2                             432 
    x2        c6                             130 
    x3        c9                             776  c8                             431 
    x3        c2                              20  c1                             350 
    x3        c6                             414  c7                             311 
    x3        c3                             380  Obj                            822 
    x3        c4                             772  c0                             739 
    x3        c5                              95 
    x4        c4                             372  c3                             170 
    x4        c0                             848  c6                             587 
    x4        Obj                            592  c1                             219 
    x4        c7                             320  c2                             793 
    x4        c5                             747  c8                             768 
    x4        c9                             158 
    x5        c8                             876  c3                             436 
    x5        c1                             700  c5                              78 
    x5        c6                             352  c7                             500 
    x5        Obj                            552  c4                             809 
    x5        c0                             742  c9                             141 
    x5        c2                             172 
    x6        Obj                            757  c3                             156 
    x6        c8                             917  c4                             473 
    x6        c0                             101  c7                             469 
    x6        c5                             952  c9                             489 
    x6        c1                             520  c2                              68 
    x6        c6                             426 
    x7        c9                             322  c5                             898 
    x7        c1                             466  c7                             762 
    x7        c2                             479  c4                             103 
    x7        Obj                            778  c8                             411 
    x7        c0                             994  c3                             630 
    x7        c6                             906 
    x8        c5                             191  c7                             946 
    x8        c2                              34  c4                             123 
    x8        c1                             184  c6                             127 
    x8        c0                             385  c8                             405 
    x8        Obj                            771  c3                             273 
    x8        c9                             814 
    x9        c9                             881  c4                             949 
    x9        c8                             825  c6                             177 
    x9        c0                             650  Obj                            714 
    x9        c1                             291  c3                             398 
    x9        c7                             458  c5                             573 
    x9        c2                             494 
    x10       c9                             777  c3                             687 
    x10       Obj                            843  c4                             775 
    x10       c8                             536  c6                             202 
    x10       c0                             381  c5                              94 
    x10       c7                             699  c2                             160 
    x10       c1                             806 
    x11       c1                             242  c8                             922 
    x11       c0                             968  c9                             833 
    x11       c2                             823  c7                             511 
    x11       c3                             517  c6                             936 
    x11       c4                             658  c5                             752 
    x11       Obj                            909 
    x12       Obj                           1080  c5                             862 
    x12       c3                             547  c1                             155 
    x12       c7                             537  c9                             952 
    x12       c8                             852  c0                             982 
    x12       c6                             613  c2                             236 
    x12       c4                             142 
    x13       c5                             463  c8                             639 
    x13       c3                             159  c7                             925 
    x13       c9                             492  c0                             632 
    x13       c1                             437  c6                             471 
    x13       c2                             775  c4                             644 
    x13       Obj                            694 
    x14       Obj                            718  c4                             614 
    x14       c5                             302  c6                              19 
    x14       c7                             435  c1                             847 
    x14       c2                             410  c0                             521 
    x14       c3                             622  c9                             887 
    x14       c8                             269 
    x15       c9                             700  c1                             910 
    x15       c2                             392  c7                             426 
    x15       c6                              92  c8                             728 
    x15       Obj                            581  c3                             623 
    x15       c0                             268  c5                             896 
    x15       c4                              98 
    x16       c3                             929  Obj                            589 
    x16       c5                              66  c9                             147 
    x16       c1                             821  c4                             515 
    x16       c7                             586  c6                             490 
    x16       c0                             904  c8                              84 
    x16       c2                             412 
    x17       c7                             987  c3                             996 
    x17       c9                             223  Obj                           1116 
    x17       c4                             550  c2                             603 
    x17       c1                             828  c5                             933 
    x17       c6                             968  c0                             441 
    x17       c8                             220 
    x18       c8                             359  c1                             715 
    x18       c5                             132  c6                             234 
    x18       c0                             487  c3                             441 
    x18       c9                             586  Obj                            692 
    x18       c7                             103  c2                             549 
    x18       c4                             647 
    x19       Obj                            957  c5                             915 
    x19       c8                              58  c0                             740 
    x19       c9                             988  c2                             848 
    x19       c6                             659  c3                             399 
    x19       c4                             410  c7                             471 
    x19       c1                             225 
    x20       c1                             566  c7                             194 
    x20       c3                             302  c4                             904 
    x20       Obj                            500  c9                             134 
    x20       c8                             232  c0                             964 
    x20       c5                             119  c2                             416 
    x20       c6                             696 
    x21       c9                             164  c1                             499 
    x21       c2                             999  c4                             723 
    x21       Obj                            981  c5                             570 
    x21       c0                             917  c6                             429 
    x21       c3                             950  c8                             448 
    x21       c7                              89 
    x22       c8                             743  Obj                            998 
    x22       c0                             480  c1                             341 
    x22       c9                             106  c2                             751 
    x22       c5                             550  c7                             842 
    x22       c4                             711  c3                             687 
    x22       c6                             793 
    x23       c8                             213  c6                              69 
    x23       c0                             791  Obj                            766 
    x23       c9                             282  c1                             982 
    x23       c2                             855  c5                             573 
    x23       c7                             813  c4                             412 
    x23       c3                             143 
    x24       c3                             568  c0                             544 
    x24       c6                             275  c9                             923 
    x24       Obj                            787  c1                             539 
    x24       c7                             850  c2                             592 
    x24       c4                             969  c5                             933 
    x24       c8                             989 
    x25       c9                             608  c0                             845 
    x25       c3                             424  c1                             883 
    x25       c7                             212  c8                             928 
    x25       Obj                            748  c6                             875 
    x25       c5                             173  c4                             594 
    x25       c2                             423 
    x26       Obj                            809  c5                             962 
    x26       c9                             258  c2                              61 
    x26       c0                             276  c3                             770 
    x26       c7                             201  c8                             368 
    x26       c4                             726  c1                             761 
    x26       c6                             424 
    x27       c5                             578  c0                              32 
    x27       c3                             294  Obj                            940 
    x27       c7                             915  c6                             143 
    x27       c1                             411  c8                             466 
    x27       c9                             843  c4                             711 
    x27       c2                              46 
    x28       c1                             210  c9                             734 
    x28       Obj                            756  c7                             437 
    x28       c6                             482  c2                             570 
    x28       c3                              39  c8                             813 
    x28       c0                             537  c4                             354 
    x28       c5                              78 
    x29       c8                             636  c9                             878 
    x29       c7                             248  c6                             788 
    x29       c0                             818  Obj                            942 
    x29       c4                             827  c3                             690 
    x29       c2                             790  c5                             906 
    x29       c1                              48 
    x30       c0                             869  c6                             648 
    x30       c3                             370  c7                             262 
    x30       c1                             441  Obj                            826 
    x30       c4                             115  c8                             387 
    x30       c9                             961  c5                             455 
    x30       c2                             975 
    x31       c7                             878  c4                             495 
    x31       c1                             504  c2                             481 
    x31       c0                             451  Obj                            841 
    x31       c6                             207  c8                             923 
    x31       c3                             441  c5                             280 
    x31       c9                              34 
    x32       c7                             930  c3                             391 
    x32       c4                             276  c6                             174 
    x32       c2                              18  c1                             726 
    x32       c5                             375  c9                             161 
    x32       c8                             553  c0                             201 
    x32       Obj                            760 
    x33       c2                             824  c0                             923 
    x33       c8                              25  c1                             667 
    x33       c3                             935  c9                             221 
    x33       Obj                            866  c4                             294 
    x33       c7                             201  c6                             259 
    x33       c5                             152 
    x34       c4                             553  c6                             189 
    x34       c9                             245  c0                             300 
    x34       c3                             866  c5                             581 
    x34       c7                             545  c2                             354 
    x34       Obj                            830  c1                             636 
    x34       c8                             208 
    x35       c4                             815  c5                             480 
    x35       c9                             632  c3                             523 
    x35       Obj                            721  c7                              78 
    x35       c8                              10  c2                              28 
    x35       c1                             870  c0                             420 
    x35       c6                             551 
    x36       c6                              60  c2                             475 
    x36       c1                             818  c9                             837 
    x36       c7                             778  c8                              16 
    x36       Obj                            875  c5                             119 
    x36       c4                             922  c3                             461 
    x36       c0                             155 
    x37       c4                             448  c9                             596 
    x37       c8                             749  c6                             457 
    x37       c2                             905  c1                             982 
    x37       Obj                            675  c5                              40 
    x37       c7                             237  c0                             912 
    x37       c3                             935 
    x38       c0                             412  Obj                            588 
    x38       c2                             249  c4                             447 
    x38       c1                              46  c6                              97 
    x38       c9                             710  c7                             629 
    x38       c8                             175  c5                             811 
    x38       c3                             596 
    x39       c8                             717  c6                             869 
    x39       Obj                            956  c0                             564 
    x39       c5                             340  c1                             791 
    x39       c7                             564  c2                             878 
    x39       c9                             134  c4                             335 
    x39       c3                             468 
    x40       c3                             747  c9                             560 
    x40       c7                             489  c1                             648 
    x40       c4                             881  c2                             985 
    x40       c6                             154  c0                             503 
    x40       c8                             323  c5                             593 
    x40       Obj                            691 
    x41       Obj                            655  c0                             698 
    x41       c8                             895  c7                             734 
    x41       c4                             760  c1                             617 
    x41       c6                             442  c5                             418 
    x41       c2                             508  c9                             483 
    x41       c3                             452 
    x42       c8                             481  c0                              79 
    x42       c9                             235  c5                             829 
    x42       c7                              83  Obj                            659 
    x42       c3                              38  c6                             280 
    x42       c2                             426  c1                             406 
    x42       c4                             594 
    x43       c1                             753  c8                             739 
    x43       c0                             179  c9                             279 
    x43       c6                             161  c3                             811 
    x43       c4                             997  Obj                            786 
    x43       c5                             831  c2                             552 
    x43       c7                             932 
    x44       c7                             677  Obj                            955 
    x44       c8                             508  c1                             815 
    x44       c2                             386  c0                              19 
    x44       c9                             289  c3                             988 
    x44       c6                             548  c4                             458 
    x44       c5                              41 
    x45       c5                             423  Obj                            683 
    x45       c1                              15  c2                             107 
    x45       c0                             583  c7                             361 
    x45       c4                             806  c9                             146 
    x45       c8                             450  c3                             372 
    x45       c6                             710 
    x46       c8                             402  c3                             425 
    x46       c6                             432  c5                             713 
    x46       c7                             952  c1                             450 
    x46       c2                             794  c9                             520 
    x46       c0                             899  c4                             867 
    x46       Obj                            861 
    x47       c3                              99  c1                             202 
    x47       c2                             996  c0                             780 
    x47       c4                             941  c6                             555 
    x47       c9                             446  c8                             622 
    x47       c5                              88  Obj                            827 
    x47       c7                             977 
    x48       c8                             825  Obj                           1122 
    x48       c6                             660  c4                             326 
    x48       c2                             959  c9                             357 
    x48       c7                             607  c0                             680 
    x48       c5                             696  c3                             654 
    x48       c1                             606 
    x49       c5                             615  c7                             279 
    x49       c3                             739  c0                             702 
    x49       c1                             295  c8                             942 
    x49       c9                             870  c4                             142 
    x49       c2                             378  Obj                            840 
    x49       c6                             897 
    x50       c3                             757  c8                             435 
    x50       c9                             994  c4                             745 
    x50       c2                             296  c7                             319 
    x50       c5                             494  c6                             108 
    x50       Obj                            825  c0                             573 
    x50       c1                              35 
    x51       c6                             551  c8                             678 
    x51       c2                             582  c7                             789 
    x51       c4                             529  c1                             651 
    x51       c3                             687  c0                             451 
    x51       c9                             979  c5                             308 
    x51       Obj                            772 
    x52       c3                             282  c8                             285 
    x52       c5                             719  c2                             254 
    x52       c7                             412  c6                             514 
    x52       c1                             467  c4                              46 
    x52       c0                             320  c9                             167 
    x52       Obj                            671 
    x53       c5                             120  c2                             274 
    x53       c6                             930  c0                              63 
    x53       c7                             470  c1                             531 
    x53       c4                             783  c3                             950 
    x53       Obj                            836  c9                             758 
    x53       c8                             180 
    x54       c1                             160  c8                             520 
    x54       c3                             455  c6                             516 
    x54       c5                             963  c0                             194 
    x54       c9                              56  Obj                            672 
    x54       c7                             551  c4                             725 
    x54       c2                             154 
    x55       c5                             294  c4                             191 
    x55       c9                             660  Obj                            859 
    x55       c6                             819  c0                             511 
    x55       c7                             253  c1                             204 
    x55       c2                             299  c8                             106 
    x55       c3                             261 
    x56       Obj                            932  c4                             527 
    x56       c3                             709  c5                             189 
    x56       c8                             345  c0                             640 
    x56       c2                             637  c9                              89 
    x56       c1                             170  c7                             114 
    x56       c6                             937 
    x57       c6                             348  c5                             299 
    x57       c9                             161  c1                             331 
    x57       c8                             973  Obj                            927 
    x57       c2                             446  c3                             487 
    x57       c7                             511  c4                             735 
    x57       c0                             672 
    x58       c8                             398  c9                             402 
    x58       c0                             463  c4                             799 
    x58       Obj                            582  c3                             925 
    x58       c2                             419  c1                             595 
    x58       c5                             168  c6                             127 
    x58       c7                             619 
    x59       c5                             728  c3                             643 
    x59       c7                             806  c6                             458 
    x59       c9                             597  c1                             683 
    x59       c4                              93  c2                             651 
    x59       c8                             581  c0                             624 
    x59       Obj                            852 
    x60       c6                             302  c1                             343 
    x60       c5                             209  c9                             685 
    x60       c8                             445  c0                             618 
    x60       c2                             711  c4                             968 
    x60       Obj                            870  c7                             619 
    x60       c3                             676 
    x61       c6                             894  c5                             974 
    x61       c2                             399  Obj                            840 
    x61       c9                             742  c8                             961 
    x61       c7                              54  c4                             450 
    x61       c3                             996  c1                             480 
    x61       c0                             534 
    x62       c2                              79  c6                             228 
    x62       c9                             990  c0                             798 
    x62       c5                             912  c8                             722 
    x62       c7                             180  c4                             563 
    x62       Obj                            879  c1                             477 
    x62       c3                             855 
    x63       Obj                            808  c4                             813 
    x63       c6                             992  c7                             699 
    x63       c2                              81  c8                             481 
    x63       c5                             942  c3                             269 
    x63       c9                             968  c0                             255 
    x63       c1                             660 
    x64       c2                             446  c7                             116 
    x64       c5                              71  c6                             582 
    x64       c9                             498  c8                             448 
    x64       c1                              74  c0                              39 
    x64       c3                             186  Obj                            763 
    x64       c4                             260 
    x65       c4                             766  c8                             632 
    x65       Obj                            714  c2                             176 
    x65       c3                             846  c6                             602 
    x65       c5                             225  c7                             636 
    x65       c1                             359  c9                             840 
    x65       c0                             522 
    x66       Obj                            722  c2                             939 
    x66       c6                             739  c9                             102 
    x66       c3                             870  c1                             514 
    x66       c5                             929  c7                             247 
    x66       c0                             733  c4                             459 
    x66       c8                             138 
    x67       c8                             599  c3                             505 
    x67       c7                             769  c5                             783 
    x67       c2                             893  c9                             835 
    x67       Obj                            872  c1                             432 
    x67       c4                             176  c0                             144 
    x67       c6                             460 
    x68       c7                             666  Obj                            780 
    x68       c9                             703  c0                             662 
    x68       c1                             108  c2                             556 
    x68       c6                             631  c4                              21 
    x68       c5                             978  c8                             848 
    x68       c3                             809 
    x69       c7                             820  c3                             690 
    x69       c0                             143  c1                             563 
    x69       c4                             335  c8                             851 
    x69       c5                             609  c9                             200 
    x69       Obj                            797  c6                             256 
    x69       c2                             121 
    x70       c7                             765  c6                             894 
    x70       c3                             281  c5                             673 
    x70       c8                             741  c2                             135 
    x70       c9                             395  Obj                            858 
    x70       c4                             188  c0                             205 
    x70       c1                             820 
    x71       c4                             276  c8                             138 
    x71       c3                             993  c0                              64 
    x71       c1                             237  c7                             376 
    x71       c6                             516  Obj                            771 
    x71       c5                             835  c2                             821 
    x71       c9                             620 
    x72       c0                             319  c3                             289 
    x72       Obj                            828  c1                              93 
    x72       c8                             715  c7                             665 
    x72       c5                             821  c2                              33 
    x72       c6                             138  c4                             775 
    x72       c9                             937 
    x73       c7                              15  c2                              36 
    x73       Obj                            608  c9                             385 
    x73       c1                              73  c3                             458 
    x73       c5                              62  c8                             520 
    x73       c6                             304  c0                             765 
    x73       c4                              12 
    x74       c2                             921  c5                             464 
    x74       c7                             782  c6                             558 
    x74       c8                             714  c9                             743 
    x74       Obj                            859  c0                              64 
    x74       c3                             580  c4                              80 
    x74       c1                             824 
    x75       c6                             644  c7                             866 
    x75       c5                             987  c9                             124 
    x75       c8                              78  c2                             352 
    x75       Obj                            571  c4                             221 
    x75       c1                             912  c3                             310 
    x75       c0                              94 
    x76       Obj                            720  c5                             122 
    x76       c7                             923  c4                             591 
    x76       c2                             851  c6                             427 
    x76       c0                             351  c8                             466 
    x76       c9                             356  c3                              92 
    x76       c1                             260 
    x77       c1                             338  c5                             405 
    x77       c8                             176  c2                             224 
    x77       Obj                            668  c4                             694 
    x77       c3                             601  c9                             137 
    x77       c7                             271  c0                             672 
    x77       c6                             786 
    x78       c3                             783  c4                             406 
    x78       c8                             401  Obj                            601 
    x78       c6                             936  c2                             329 
    x78       c0                             744  c7                              37 
    x78       c9                             598  c1                             419 
    x78       c5                             238 
    x79       c5                             874  c9                             406 
    x79       c4                             957  c1                             269 
    x79       c8                              68  c0                             443 
    x79       c2                             702  c3                             308 
    x79       c6                             100  Obj                            905 
    x79       c7                             145 
    x80       c7                             867  c2                             810 
    x80       c6                             449  Obj                            930 
    x80       c5                             846  c9                             243 
    x80       c8                             840  c3                             453 
    x80       c0                             577  c4                             327 
    x80       c1                             219 
    x81       c3                             496  c8                             128 
    x81       c6                             893  c4                             692 
    x81       c0                             917  c9                             308 
    x81       Obj                            602  c1                             739 
    x81       c5                             325  c7                             926 
    x81       c2                             417 
    x82       c2                             942  c1                             539 
    x82       c0                             847  c8                              98 
    x82       c9                             506  c6                             516 
    x82       c3                             279  c7                              57 
    x82       c5                             331  c4                             323 
    x82       Obj                            706 
    x83       Obj                            981  c3                             410 
    x83       c8                             498  c5                             287 
    x83       c4                             363  c1                             707 
    x83       c2                             680  c7                             978 
    x83       c6                             708  c0                             657 
    x83       c9                             679 
    x84       c2                             687  c5                             867 
    x84       c4                             244  c7                              95 
    x84       c6                               3  Obj                            872 
    x84       c9                             456  c0                             280 
    x84       c1                             960  c8                             150 
    x84       c3                             388 
    x85       c0                             433  c5                             842 
    x85       c3                              51  c6                             585 
    x85       c7                             189  c8                             258 
    x85       Obj                            810  c9                             752 
    x85       c1                             588  c2                             444 
    x85       c4                             424 
    x86       c7                             913  Obj                           1067 
    x86       c0                             730  c4                             671 
    x86       c1                             141  c3                             527 
    x86       c6                             489  c2                             523 
    x86       c8                             441  c9                             921 
    x86       c5                             336 
    x87       c0                             861  c7                             660 
    x87       c6                             393  Obj                            771 
    x87       c2                             307  c9                             955 
    x87       c5                             944  c1                             976 
    x87       c4                             460  c3                             998 
    x87       c8                              52 
    x88       c2                             159  c1                             180 
    x88       c4                             905  c6                             601 
    x88       c5                             347  Obj                            758 
    x88       c3                              11  c8                             100 
    x88       c9                             954  c0                              31 
    x88       c7                             823 
    x89       c1                             146  c9                             657 
    x89       c2                             923  c7                             371 
    x89       c0                             490  c8                             144 
    x89       Obj                            945  c5                             971 
    x89       c6                               6  c4                             662 
    x89       c3                             275 
    x90       c7                             293  c3                             308 
    x90       Obj                            804  c6                               2 
    x90       c0                             765  c8                             311 
    x90       c1                             994  c2                             593 
    x90       c4                             175  c9                             455 
    x90       c5                             656 
    x91       c5                             358  c6                             828 
    x91       c0                             732  c4                             157 
    x91       c7                              31  c2                             796 
    x91       c9                             660  c8                              77 
    x91       Obj                            698  c1                             583 
    x91       c3                             555 
    x92       c0                             357  c4                             907 
    x92       c1                             417  c9                             233 
    x92       c8                             415  c6                             694 
    x92       c3                              53  c5                             293 
    x92       Obj                            862  c2                             843 
    x92       c7                             761 
    x93       c0                             218  c8                             134 
    x93       Obj                            666  c9                             962 
    x93       c4                             602  c1                             764 
    x93       c5                              52  c3                             145 
    x93       c6                             369  c7                              83 
    x93       c2                               5 
    x94       c0                             661  c9                             267 
    x94       Obj                            728  c4                             398 
    x94       c8                             271  c1                             529 
    x94       c6                             246  c7                             941 
    x94       c3                             211  c5                             517 
    x94       c2                              11 
    x95       Obj                            862  c1                             364 
    x95       c3                               9  c9                              89 
    x95       c4                             899  c0                             687 
    x95       c6                              23  c5                             763 
    x95       c8                             228  c2                             250 
    x95       c7                             452 
    x96       c8                             261  c3                             299 
    x96       c9                             595  c5                             498 
    x96       c4                              28  c0                             626 
    x96       c6                             854  c7                             543 
    x96       c2                             181  Obj                            901 
    x96       c1                             510 
    x97       c1                             680  c3                             399 
    x97       c4                              47  c9                             392 
    x97       c6                             849  c7                             413 
    x97       c0                              46  Obj                            639 
    x97       c2                             635  c8                             125 
    x97       c5                             298 
    x98       c6                             547  Obj                            734 
    x98       c2                             651  c9                              35 
    x98       c5                             205  c0                             607 
    x98       c7                             306  c4                             179 
    x98       c8                             757  c1                             122 
    x98       c3                             667 
    x99       c3                             248  c4                             585 
    x99       c5                             180  c2                             758 
    x99       c8                             127  Obj                            826 
    x99       c0                             902  c7                             928 
    x99       c6                             335  c1                             971 
    x99       c9                             567 
    INTEND    'MARKER'                            'INTEND'                           
RHS
    RHS       c0                           26525  c1                           25120 
    RHS       c2                           24280  c3                           25265 
    RHS       c4                           26205  c5                           25477 
    RHS       c6                           23982  c7                           25695 
    RHS       c8                           23511  c9                           26096 
BOUNDS
 BV Bound     x0                                 
 BV Bound     x1                                 
 BV Bound     x2                                 
 BV Bound     x3                                 
 BV Bound     x4                                 
 BV Bound     x5                                 
 BV Bound     x6                                 
 BV Bound     x7                                 
 BV Bound     x8                                 
 BV Bound     x9                                 
 BV Bound     x10                                
 BV Bound     x11                                
 BV Bound     x12                                
 BV Bound     x13                                
 BV Bound     x14                                
 BV Bound     x15                                
 BV Bound     x16                                
 BV Bound     x17                                
 BV Bound     x18                                
 BV Bound     x19                                
 BV Bound     x20                                
 BV Bound     x21                                
 BV Bound     x22                                
 BV Bound     x23                                
 BV Bound     x24                                
 BV Bound     x25                                
 BV Bound     x26                                
 BV Bound     x27                                
 BV Bound     x28                                
 BV Bound     x29                                
 BV Bound     x30                                
 BV Bound     x31                                
 BV Bound     x32                                
 BV Bound     x33                                
 BV Bound     x34                                
 BV Bound     x35                                
 BV Bound     x36                                
 BV Bound     x37                                
 BV Bound     x38                                
 BV Bound     x39                                
 BV Bound     x40                                
 BV Bound     x41                                
 BV Bound     x42                                
 BV Bound     x43                                
 BV Bound     x44                                
 BV Bound     x45                                
 BV Bound     x46                                
 BV Bound     x47                                
 BV Bound     x48                                
 BV Bound     x49                                
 BV Bound     x50                                
 BV Bound     x51                                
 BV Bound     x52                                
 BV Bound     x53                                
 BV Bound     x54                                
 BV Bound     x55                                
 BV Bound     x56                                
 BV Bound     x57                                
 BV Bound     x58                                
 BV Bound     x59                                
 BV Bound     x60                                
 BV Bound     x61                                
 BV Bound     x62                                
 BV Bound     x63                                
 BV Bound     x64                                
 BV Bound     x65                                
 BV Bound     x66                                
 BV Bound     x67                                
 BV Bound     x68                                
 BV Bound     x69                                
 BV Bound     x70                                
 BV Bound     x71                                
 BV Bound     x72                                
 BV Bound     x73                                
 BV Bound     x74                                
 BV Bound     x75                                
 BV Bound     x76                                
 BV Bound     x77                                
 BV Bound     x78                                
 BV Bound     x79                                
 BV Bound     x80                                
 BV Bound     x81                                
 BV Bound     x82                                
 BV Bound     x83                                
 BV Bound     x84                                
 BV Bound     x85                                
 BV Bound     x86                                
 BV Bound     x87                                
 BV Bound     x88                                
 BV Bound     x89                                
 BV Bound     x90                                
 BV Bound     x91                                
 BV Bound     x92                                
 BV Bound     x93                                
 BV Bound     x94                                
 BV Bound     x95                                
 BV Bound     x96                                
 BV Bound     x97                                
 BV Bound     x98                                
 BV Bound     x99                                
ENDATA