* SCIP STATISTICS
*   Problem name     : mknap_6
*   Variables        : 100 (100 binary, 0 integer, 0 implicit integer, 0 continuous)
*   Constraints      : 10
NAME          mknap_6
OBJSENSE
  MAX
ROWS
 N  Obj 
 L  c0 
 L  c1 
 L  c2 
 L  c3 
 L  c4 
 L  c5 
 L  c6 
 L  c7 
 L  c8 
 L  c9 
COLUMNS
    INTSTART  'MARKER'                            'INTORG'                           
    x0        Obj                            633  c5                             942 
    x0        c4                             865  c6                             717 
    x0        c3                             569  c7                             150 
    x0        c2                             740  c8                              84 
    x0        c1                              74  c9                               4 
    x0        c0                             566 
    x1        Obj                            686  c5                             138 
    x1        c4                             228  c6                             932 
    x1        c3                             288  c7                             380 
    x1        c2                             347  c8                             537 
    x1        c1                             972  c9                             630 
    x1        c0                             792 
    x2        c9                             625  c5                             984 
    x2        Obj                            828  c3                             686 
    x2        c1                             955  c4                             443 
    x2        c0                             258  c8                             927 
    x2        c7                             894  c2                             550 
    x2        c6                             767 
    x3        c9                             432  c8                             379 
    x3        c2                             222  c1                             264 
    x3        c6                             654  c7                             229 
    x3        c3                             253  Obj                            448 
    x3        c4                             119  c0                             359 
    x3        c5                             726 
    x4        c4                             649  c3                             362 
    x4        c0                             889  c6                             479 
    x4        Obj                            488  c1                             113 
    x4        c7                             124  c2                             583 
    x4        c5                             497  c8                             986 
    x4        c9                             161 
    x5        c8                             350  c3                             379 
    x5        c1                             972  c5                             922 
    x5        c6                             884  c7                             888 
    x5        Obj                            886  c4                             213 
    x5        c0                             527  c9                              20 
    x5        c2                             829 
    x6        Obj                            673  c3                             726 
    x6        c8                             623  c4                             123 
    x6        c0                             473  c7                             325 
    x6        c5                             354  c9                             486 
    x6        c1                             245  c2                             237 
    x6        c6                             361 
    x7        c9                             785  c5                             534 
    x7        c1                             483  c7                             716 
    x7        c2                             288  c4                             612 
    x7        Obj                            780  c8                              85 
    x7        c0                             390  c3                             963 
    x7        c6                             532 
    x8        c5                             245  c7                             323 
    x8        c2                             886  c4                             167 
    x8        c1                             525  c6                             947 
    x8        c0                             315  c8                             521 
    x8        Obj                            668  c3                              59 
    x8        c9                             868 
    x9        c9                             308  c4                              40 
    x9        c8                             224  c6                              12 
    x9        c0                             249  Obj                            422 
    x9        c1                             854  c3                             456 
    x9        c7                             290  c5                             819 
    x9        c2                             524 
    x10       c9                             656  c3                             436 
    x10       Obj                            464  c4                             463 
    x10       c8                             497  c6                             203 
    x10       c0                             664  c5                             679 
    x10       c7                              15  c2                             636 
    x10       c1                               3 
    x11       c1                             799  c8                             655 
    x11       c0                             550  c9                             215 
    x11       c2                             770  c7                             473 
    x11       c3                             581  c6                             765 
    x11       c4                             823  c5                             171 
    x11       Obj                            760 
    x12       Obj                            842  c5                             178 
    x12       c3                             575  c1                             478 
    x12       c7                             327  c9                             242 
    x12       c8                             488  c0                             188 
    x12       c6                             798  c2                             100 
    x12       c4                             783 
    x13       c5                             278  c8                             162 
    x13       c3                              30  c7                             345 
    x13       c9                              49  c0                             674 
    x13       c1                             590  c6                             539 
    x13       c2                             940  c4                             361 
    x13       Obj                            637 
    x14       Obj                            574  c4                             178 
    x14       c5                              16  c6                             105 
    x14       c7                              26  c1                             293 
    x14       c2                              83  c0                             482 
    x14       c3                             708  c9                             179 
    x14       c8                             797 
    x15       c9                             489  c1                             605 
    x15       c2                             856  c7                             218 
    x15       c6                             739  c8                             689 
    x15       Obj                            841  c3                             586 
    x15       c0                             763  c5                             397 
    x15       c4                             123 
    x16       c3                             118  Obj                            532 
    x16       c5                             420  c9                             554 
    x16       c1                             156  c4                              48 
    x16       c7                             165  c6                             626 
    x16       c0                             786  c8                             586 
    x16       c2                             872 
    x17       c7                             675  c3                             470 
    x17       c9                             262  Obj                            947 
    x17       c4                             455  c2                             804 
    x17       c1                              57  c5                             737 
    x17       c6                             349  c0                             675 
    x17       c8                             443 
    x18       c8                              53  c1                             648 
    x18       c5                             694  c6                             823 
    x18       c0                             162  c3                             145 
    x18       c9                              50  Obj                            712 
    x18       c7                              91  c2                             587 
    x18       c4                             333 
    x19       Obj                            734  c5                             619 
    x19       c8                             896  c0                             739 
    x19       c9                              77  c2                             630 
    x19       c6                             242  c3                             563 
    x19       c4                             996  c7                             839 
    x19       c1                              21 
    x20       c1                             515  c7                             101 
    x20       c3                             863  c4                             117 
    x20       Obj                            815  c9                             485 
    x20       c8                             555  c0                             226 
    x20       c5                             147  c2                             962 
    x20       c6                             154 
    x21       c9                             851  c1                             441 
    x21       c2                             425  c4                             308 
    x21       Obj                            873  c5                             373 
    x21       c0                             679  c6                             759 
    x21       c3                              13  c8                             676 
    x21       c7                             103 
    x22       c8                             825  Obj                            945 
    x22       c0                             588  c1                             475 
    x22       c9                             386  c2                             437 
    x22       c5                             754  c7                             250 
    x22       c4                             844  c3                             904 
    x22       c6                             616 
    x23       c8                              80  c6                             665 
    x23       c0                              21  Obj                            407 
    x23       c9                             605  c1                             204 
    x23       c2                             187  c5                             472 
    x23       c7                             802  c4                             210 
    x23       c3                             155 
    x24       c3                             808  c0                             568 
    x24       c6                             212  c9                             320 
    x24       Obj                            798  c1                             482 
    x24       c7                             475  c2                             229 
    x24       c4                             618  c5                              96 
    x24       c8                             924 
    x25       c9                             396  c0                             191 
    x25       c3                             924  c1                             756 
    x25       c7                             707  c8                             716 
    x25       Obj                            717  c6                             341 
    x25       c5                             342  c4                             490 
    x25       c2                             825 
    x26       Obj                            640  c5                             558 
    x26       c9                             920  c2                              59 
    x26       c0                             396  c3                             421 
    x26       c7                             624  c8                             886 
    x26       c4                             329  c1                             636 
    x26       c6                             275 
    x27       c5                             296  c0                             531 
    x27       c3                             199  Obj                            688 
    x27       c7                             878  c6                             424 
    x27       c1                             124  c8                              66 
    x27       c9                             123  c4                              92 
    x27       c2                             442 
    x28       c1                             826  c9                             475 
    x28       Obj                            805  c7                             684 
    x28       c6                             546  c2                             566 
    x28       c3                             606  c8                             726 
    x28       c0                             535  c4                             158 
    x28       c5                             183 
    x29       c8                             612  c9                             248 
    x29       c7                             541  c6                             596 
    x29       c0                             542  Obj                            863 
    x29       c4                             368  c3                             938 
    x29       c2                             113  c5                             405 
    x29       c1                             163 
    x30       c0                             592  c6                             180 
    x30       c3                             174  c7                             236 
    x30       c1                             309  Obj                            796 
    x30       c4                             524  c8                             598 
    x30       c9                             491  c5                             438 
    x30       c2                             480 
    x31       c7                              18  c4                             219 
    x31       c1                             400  c2                             170 
    x31       c0                             254  Obj                            597 
    x31       c6                             207  c8                             174 
    x31       c3                             332  c5                             113 
    x31       c9                             534 
    x32       c7                             449  c3                             126 
    x32       c4                             885  c6                             839 
    x32       c2                             985  c1                             919 
    x32       c5                             223  c9                              95 
    x32       c8                             905  c0                             408 
    x32       Obj                            730 
    x33       c2                              54  c0                             235 
    x33       c8                             193  c1                             883 
    x33       c3                             100  c9                             185 
    x33       Obj                            493  c4                             174 
    x33       c7                             419  c6                             558 
    x33       c5                             365 
    x34       c4                             237  c6                             963 
    x34       c9                             216  c0                             510 
    x34       c3                             690  c5                             798 
    x34       c7                             576  c2                             561 
    x34       Obj                            541  c1                             109 
    x34       c8                             725 
    x35       c4                             270  c5                              90 
    x35       c9                              26  c3                             979 
    x35       Obj                            871  c7                             570 
    x35       c8                             984  c2                             563 
    x35       c1                             228  c0                             317 
    x35       c6                             554 
    x36       c6                              41  c2                             542 
    x36       c1                            1000  c9                             130 
    x36       c7                             606  c8                             122 
    x36       Obj                            448  c5                              66 
    x36       c4                             579  c3                             191 
    x36       c0                             851 
    x37       c4                             126  c9                             704 
    x37       c8                             572  c6                             496 
    x37       c2                             356  c1                             182 
    x37       Obj                            557  c5                             630 
    x37       c7                             472  c0                             330 
    x37       c3                             930 
    x38       c0                             197  Obj                            690 
    x38       c2                             192  c4                             743 
    x38       c1                             408  c6                             822 
    x38       c9                             450  c7                              47 
    x38       c8                             576  c5                             939 
    x38       c3                             279 
    x39       c8                              42  c6                             286 
    x39       Obj                            801  c0                             141 
    x39       c5                             820  c1                             966 
    x39       c7                             905  c2                              15 
    x39       c9                             473  c4                             983 
    x39       c3                             734 
    x40       c3                             213  c9                             481 
    x40       c7                             311  c1                             870 
    x40       c4                             352  c2                             581 
    x40       c6                             106  c0                             134 
    x40       c8                             485  c5                             741 
    x40       Obj                            690 
    x41       Obj                            748  c0                             530 
    x41       c8                             164  c7                             948 
    x41       c4                              23  c1                             431 
    x41       c6                             509  c5                             309 
    x41       c2                             655  c9                             598 
    x41       c3                             705 
    x42       c8                             806  c0                             749 
    x42       c9                             775  c5                              33 
    x42       c7                             450  Obj                            853 
    x42       c3                             542  c6                             584 
    x42       c2                             588  c1                             966 
    x42       c4                             452 
    x43       c1                             360  c8                             516 
    x43       c0                             631  c9                             315 
    x43       c6                             994  c3                              95 
    x43       c4                             400  Obj                            906 
    x43       c5                             122  c2                             321 
    x43       c7                             569 
    x44       c7                             238  Obj                            593 
    x44       c8                             600  c1                             606 
    x44       c2                             879  c0                             264 
    x44       c9                             842  c3                             751 
    x44       c6                             574  c4                             478 
    x44       c5                             311 
    x45       c5                             129  Obj                            925 
    x45       c1                             967  c2                             781 
    x45       c0                             708  c7                             579 
    x45       c4                             873  c9                              43 
    x45       c8                              30  c3                             936 
    x45       c6                             473 
    x46       c8                             924  c3                             903 
    x46       c6                             310  c5                             808 
    x46       c7                             263  c1                             533 
    x46       c2                             755  c9                             232 
    x46       c0                             677  c4                             472 
    x46       Obj                            916 
    x47       c3                             852  c1                             824 
    x47       c2                             833  c0                             637 
    x47       c4                               7  c6                             398 
    x47       c9                             134  c8                             822 
    x47       c5                             386  Obj                            624 
    x47       c7                             334 
    x48       c8                             203  Obj                            681 
    x48       c6                             717  c4                             427 
    x48       c2                             160  c9                             359 
    x48       c7                             783  c0                             892 
    x48       c5                             513  c3                             867 
    x48       c1                             783 
    x49       c5                             323  c7                             305 
    x49       c3                             451  c0                             184 
    x49       c1                              50  c8                             850 
    x49       c9                             383  c4                             554 
    x49       c2                             736  Obj                            669 
    x49       c6                             606 
    x50       c3                             827  c8                             913 
    x50       c9                             128  c4                             143 
    x50       c2                             338  c7                             497 
    x50       c5                             357  c6                             822 
    x50       Obj                            579  c0                             128 
    x50       c1                             670 
    x51       c6                             956  c8                             138 
    x51       c2                             483  c7                             805 
    x51       c4                             194  c1                             662 
    x51       c3                             693  c0                             547 
    x51       c9                             279  c5                             377 
    x51       Obj                            926 
    x52       c3                             198  c8                             976 
    x52       c5                              89  c2                             213 
    x52       c7                             407  c6                             646 
    x52       c1                             242  c4                             182 
    x52       c0                             822  c9                             841 
    x52       Obj                            703 
    x53       c5                             373  c2                             629 
    x53       c6                             870  c0                             224 
    x53       c7                              50  c1                             424 
    x53       c4                             762  c3                             176 
    x53       Obj                            430  c9                             145 
    x53       c8                             621 
    x54       c1                             919  c8                             470 
    x54       c3                             821  c6                             742 
    x54       c5                             665  c0                             607 
    x54       c9                             834  Obj                           1023 
    x54       c7                             406  c4                             589 
    x54       c2                             122 
    x55       c5                             856  c4                             251 
    x55       c9                             516  Obj                            554 
    x55       c6                             449  c0                             869 
    x55       c7                             184  c1                             570 
    x55       c2                             290  c8                             929 
    x55       c3                              41 
    x56       Obj                            854  c4                             828 
    x56       c3                             558  c5                             959 
    x56       c8                             383  c0                             270 
    x56       c2                             978  c9                             538 
    x56       c1                             812  c7                             297 
    x56       c6                             160 
    x57       c6                             109  c5                             959 
    x57       c9                             635  c1                             773 
    x57       c8                              29  Obj                            809 
    x57       c2                              93  c3                             302 
    x57       c7                             812  c4                             336 
    x57       c0                             473 
    x58       c8                             724  c9                             296 
    x58       c0                             453  c4                             554 
    x58       Obj                            785  c3                             272 
    x58       c2                             723  c1                             109 
    x58       c5                             708  c6                             229 
    x58       c7                              66 
    x59       c5                             225  c3                             355 
    x59       c7                             311  c6                             450 
    x59       c9                             687  c1                             273 
    x59       c4                              18  c2                             992 
    x59       c8                             700  c0                             836 
    x59       Obj                            712 
    x60       c6                             144  c1                             653 
    x60       c5                             932  c9                             305 
    x60       c8                             295  c0                             344 
    x60       c2                             841  c4                             944 
    x60       Obj                            564  c7                             215 
    x60       c3                             707 
    x61       c6                             571  c5                             497 
    x61       c2                               6  Obj                           1030 
    x61       c9                             706  c8                             792 
    x61       c7                             360  c4                             890 
    x61       c3                             191  c1                             496 
    x61       c0                             804 
    x62       c2                             629  c6                             820 
    x62       c9                             688  c0                             269 
    x62       c5                              15  c8                             882 
    x62       c7                             430  c4                             242 
    x62       Obj                            917  c1                             912 
    x62       c3                             200 
    x63       Obj                            660  c4                             501 
    x63       c6                              38  c7                             117 
    x63       c2                             618  c8                               7 
    x63       c5                             855  c3                             633 
    x63       c9                             266  c0                             471 
    x63       c1                             854 
    x64       c2                             113  c7                             968 
    x64       c5                             797  c6                             920 
    x64       c9                             635  c8                             707 
    x64       c1                             918  c0                             488 
    x64       c3                             281  Obj                           1058 
    x64       c4                              36 
    x65       c4                             247  c8                             100 
    x65       Obj                            634  c2                              33 
    x65       c3                             465  c6                             292 
    x65       c5                             228  c7                             445 
    x65       c1                             724  c9                             286 
    x65       c0                              49 
    x66       Obj                            457  c2                             891 
    x66       c6                              34  c9                              85 
    x66       c3                             384  c1                             684 
    x66       c5                             669  c7                             232 
    x66       c0                              28  c4                              45 
    x66       c8                             349 
    x67       c8                             956  c3                             238 
    x67       c7                             784  c5                              16 
    x67       c2                             869  c9                             106 
    x67       Obj                            972  c1                             792 
    x67       c4                             992  c0                             411 
    x67       c6                             200 
    x68       c7                             686  Obj                           1028 
    x68       c9                             758  c0                             366 
    x68       c1                             964  c2                             340 
    x68       c6                             702  c4                             226 
    x68       c5                             620  c8                             314 
    x68       c3                             855 
    x69       c7                             251  c3                             400 
    x69       c0                             622  c1                              56 
    x69       c4                             430  c8                             125 
    x69       c5                             375  c9                             510 
    x69       Obj                            580  c6                             344 
    x69       c2                              34 
    x70       c7                             890  c6                              19 
    x70       c3                             710  c5                             423 
    x70       c8                             974  c2                             206 
    x70       c9                             253  Obj                            932 
    x70       c4                             811  c0                             190 
    x70       c1                              99 
    x71       c4                              45  c8                             550 
    x71       c3                             500  c0                             291 
    x71       c1                             871  c7                             478 
    x71       c6                             105  Obj                            723 
    x71       c5                             284  c2                             220 
    x71       c9                             726 
    x72       c0                              21  c3                             853 
    x72       Obj                            669  c1                             175 
    x72       c8                             925  c7                             380 
    x72       c5                             328  c2                             614 
    x72       c6                             816  c4                             808 
    x72       c9                             302 
    x73       c7                             160  c2                             322 
    x73       Obj                            487  c9                             856 
    x73       c1                              38  c3                             376 
    x73       c5                              27  c8                             815 
    x73       c6                             737  c0                             227 
    x73       c4                              98 
    x74       c2                              50  c5                             337 
    x74       c7                             186  c6                             686 
    x74       c8                             170  c9                             536 
    x74       Obj                            440  c0                             105 
    x74       c3                             944  c4                             437 
    x74       c1                              44 
    x75       c6                             255  c7                              63 
    x75       c5                             651  c9                             204 
    x75       c8                             984  c2                             692 
    x75       Obj                            650  c4                             986 
    x75       c1                             125  c3                              52 
    x75       c0                             294 
    x76       Obj                            623  c5                             906 
    x76       c7                             242  c4                             367 
    x76       c2                             791  c6                             336 
    x76       c0                              67  c8                             662 
    x76       c9                             603  c3                             751 
    x76       c1                             305 
    x77       c1                             622  c5                             605 
    x77       c8                             177  c2                             284 
    x77       Obj                            621  c4                              44 
    x77       c3                             350  c9                             227 
    x77       c7                             709  c0                             630 
    x77       c6                             161 
    x78       c3                             261  c4                              84 
    x78       c8                             989  Obj                            605 
    x78       c6                             360  c2                             259 
    x78       c0                             731  c7                             540 
    x78       c9                              75  c1                             522 
    x78       c5                             297 
    x79       c5                             456  c9                             104 
    x79       c4                             229  c1                             391 
    x79       c8                             520  c0                             228 
    x79       c2                             485  c3                             129 
    x79       c6                             320  Obj                            488 
    x79       c7                             263 
    x80       c7                             744  c2                             783 
    x80       c6                             244  Obj                            848 
    x80       c5                             143  c9                             904 
    x80       c8                             301  c3                             795 
    x80       c0                             296  c4                             907 
    x80       c1                             607 
    x81       c3                             500  c8                             854 
    x81       c6                              71  c4                             999 
    x81       c0                             540  c9                             677 
    x81       Obj                            784  c1                             920 
    x81       c5                             606  c7                             966 
    x81       c2                             185 
    x82       c2                             493  c1                             748 
    x82       c0                             388  c8                             507 
    x82       c9                             272  c6                             684 
    x82       c3                             419  c7                             290 
    x82       c5                             865  c4                             627 
    x82       Obj                            913 
    x83       Obj                            521  c3                             239 
    x83       c8                             511  c5                             814 
    x83       c4                             223  c1                             225 
    x83       c2                             281  c7                             433 
    x83       c6                             324  c0                             862 
    x83       c9                             260 
    x84       c2                             812  c5                              76 
    x84       c4                             681  c7                             316 
    x84       c6                             986  Obj                            590 
    x84       c9                              21  c0                             790 
    x84       c1                             617  c8                             290 
    x84       c3                             308 
    x85       c0                             838  c5                             181 
    x85       c3                             302  c6                             509 
    x85       c7                             827  c8                             851 
    x85       Obj                            677  c9                             268 
    x85       c1                             292  c2                             819 
    x85       c4                             601 
    x86       c7                             310  Obj                            646 
    x86       c0                             363  c4                             635 
    x86       c1                              79  c3                             228 
    x86       c6                             927  c2                             998 
    x86       c8                             180  c9                              38 
    x86       c5                             568 
    x87       c0                             975  c7                             906 
    x87       c6                             237  Obj                            656 
    x87       c2                             674  c9                             861 
    x87       c5                             438  c1                             451 
    x87       c4                             940  c3                             911 
    x87       c8                             158 
    x88       c2                             437  c1                               1 
    x88       c4                             185  c6                             557 
    x88       c5                             285  Obj                            688 
    x88       c3                              53  c8                              66 
    x88       c9                             495  c0                             965 
    x88       c7                              43 
    x89       c1                             673  c9                             453 
    x89       c2                             996  c7                             593 
    x89       c0                             599  c8                             202 
    x89       Obj                            939  c5                             111 
    x89       c6                             835  c4                             254 
    x89       c3                             192 
    x90       c7                             725  c3                             568 
    x90       Obj                            867  c6                             789 
    x90       c0                             610  c8                             869 
    x90       c1                             974  c2                             533 
    x90       c4                             506  c9                             432 
    x90       c5                             581 
    x91       c5                              55  c6                             728 
    x91       c0                             391  c4                             550 
    x91       c7                             506  c2                              78 
    x91       c9                             347  c8                             615 
    x91       Obj                            483  c1                             118 
    x91       c3                             375 
    x92       c0                             171  c4                             224 
    x92       c1                             158  c9                              76 
    x92       c8                             506  c6                             811 
    x92       c3                              93  c5                             475 
    x92       Obj                            328  c2                              52 
    x92       c7                             401 
    x93       c0                              55  c8                             112 
    x93       Obj                            534  c9                             150 
    x93       c4                             628  c1                             263 
    x93       c5                             732  c3                             140 
    x93       c6                              57  c7                             664 
    x93       c2                             285 
    x94       c0                             761  c9                             607 
    x94       Obj                            578  c4                             730 
    x94       c8                             598  c1                             853 
    x94       c6                             518  c7                             556 
    x94       c3                             225  c5                             126 
    x94       c2                              55 
    x95       Obj                            477  c1                             564 
    x95       c3                             651  c9                             159 
    x95       c4                             132  c0                              49 
    x95       c6                             265  c5                             858 
    x95       c8                             401  c2                             697 
    x95       c7                             819 
    x96       c8                             740  c3                              76 
    x96       c9                             977  c5                             769 
    x96       c4                             124  c0                             942 
    x96       c6                             586  c7                             378 
    x96       c2                             390  Obj                            676 
    x96       c1                             925 
    x97       c1                             566  c3                             701 
    x97       c4                             543  c9                             596 
    x97       c6                             494  c7                             147 
    x97       c0                             689  Obj                            800 
    x97       c2                             853  c8                             457 
    x97       c5                             409 
    x98       c6                             197  Obj                            680 
    x98       c2                             333  c9                             445 
    x98       c5                             660  c0                             148 
    x98       c7                             752  c4                             851 
    x98       c8                             663  c1                             288 
    x98       c3                             352 
    x99       c3                             542  c4                             455 
    x99       c5                             290  c2                             406 
    x99       c8                              89  Obj                            628 
    x99       c0                             649  c7                              39 
    x99       c6                             632  c1                              73 
    x99       c9                             730 
    INTEND    'MARKER'                            'INTEND'                           
RHS
    RHS       c0                           11741  c1                           12654 
    RHS       c2                           12314  c3                           11707 
    RHS       c4                           10862  c5                           11515 
    RHS       c6                           12506  c7                           11096 
    RHS       c8                           13121  c9                           10316 
BOUNDS
 BV Bound     x0                                 
 BV Bound     x1                                 
 BV Bound     x2                                 
 BV Bound     x3                                 
 BV Bound     x4                                 
 BV Bound     x5                                 
 BV Bound     x6                                 
 BV Bound     x7                                 
 BV Bound     x8                                 
 BV Bound     x9                                 
 BV Bound     x10                                
 BV Bound     x11                                
 BV Bound     x12                                
 BV Bound     x13                                
 BV Bound     x14                                
 BV Bound     x15                                
 BV Bound     x16                                
 BV Bound     x17                                
 BV Bound     x18                                
 BV Bound     x19                                
 BV Bound     x20                                
 BV Bound     x21                                
 BV Bound     x22                                
 BV Bound     x23                                
 BV Bound     x24                                
 BV Bound     x25                                
 BV Bound     x26                                
 BV Bound     x27                                
 BV Bound     x28                                
 BV Bound     x29                                
 BV Bound     x30                                
 BV Bound     x31                                
 BV Bound     x32                                
 BV Bound     x33                                
 BV Bound     x34                                
 BV Bound     x35                                
 BV Bound     x36                                
 BV Bound     x37                                
 BV Bound     x38                                
 BV Bound     x39                                
 BV Bound     x40                                
 BV Bound     x41                                
 BV Bound     x42                                
 BV Bound     x43                                
 BV Bound     x44                                
 BV Bound     x45                                
 BV Bound     x46                                
 BV Bound     x47                                
 BV Bound     x48                                
 BV Bound     x49                                
 BV Bound     x50                                
 BV Bound     x51                                
 BV Bound     x52                                
 BV Bound     x53                                
 BV Bound     x54                                
 BV Bound     x55                                
 BV Bound     x56                                
 BV Bound     x57                                
 BV Bound     x58                                
 BV Bound     x59                                
 BV Bound     x60                                
 BV Bound     x61                                
 BV Bound     x62                                
 BV Bound     x63                                
 BV Bound     x64                                
 BV Bound     x65                                
 BV Bound     x66                                
 BV Bound     x67                                
 BV Bound     x68                                
 BV Bound     x69                                
 BV Bound     x70                                
 BV Bound     x71                                
 BV Bound     x72                                
 BV Bound     x73                                
 BV Bound     x74                                
 BV Bound     x75                                
 BV Bound     x76                                
 BV Bound     x77                                
 BV Bound     x78                                
 BV Bound     x79                                
 BV Bound     x80                                
 BV Bound     x81                                
 BV Bound     x82                                
 BV Bound     x83                                
 BV Bound     x84                                
 BV Bound     x85                                
 BV Bound     x86                                
 BV Bound     x87                                
 BV Bound     x88                                
 BV Bound     x89                                
 BV Bound     x90                                
 BV Bound     x91                                
 BV Bound     x92                                
 BV Bound     x93                                
 BV Bound     x94                                
 BV Bound     x95                                
 BV Bound     x96                                
 BV Bound     x97                                
 BV Bound     x98                                
 BV Bound     x99                                
ENDATA