* SCIP STATISTICS
*   Problem name     : mknap_15
*   Variables        : 100 (100 binary, 0 integer, 0 implicit integer, 0 continuous)
*   Constraints      : 10
NAME          mknap_15
OBJSENSE
  MAX
ROWS
 N  Obj 
 L  c0 
 L  c1 
 L  c2 
 L  c3 
 L  c4 
 L  c5 
 L  c6 
 L  c7 
 L  c8 
 L  c9 
COLUMNS
    INTSTART  'MARKER'                            'INTORG'                           
    x0        Obj                            981  c5                             862 
    x0        c4                             377  c6                             273 
    x0        c3                             254  c7                             291 
    x0        c2                             529  c8                             287 
    x0        c1                             964  c9                             891 
    x0        c0                             831 
    x1        Obj                            850  c5                             231 
    x1        c4                             305  c6                             422 
    x1        c3                             828  c7                             832 
    x1        c2                             224  c8                             389 
    x1        c1                             953  c9                             173 
    x1        c0                             622 
    x2        c9                             697  c5                             947 
    x2        Obj                            949  c3                             665 
    x2        c1                             467  c4                             581 
    x2        c0                             275  c8                              88 
    x2        c7                             458  c2                             397 
    x2        c6                             996 
    x3        c9                              39  c8                             416 
    x3        c2                             644  c1                             338 
    x3        c6                             282  c7                             814 
    x3        c3                             933  Obj                            634 
    x3        c4                             332  c0                             332 
    x3        c5                             344 
    x4        c4                             573  c3                             277 
    x4        c0                             220  c6                             477 
    x4        Obj                            846  c1                             512 
    x4        c7                             733  c2                             538 
    x4        c5                              26  c8                             734 
    x4        c9                             639 
    x5        c8                             216  c3                             436 
    x5        c1                             348  c5                             456 
    x5        c6                             303  c7                             224 
    x5        Obj                            780  c4                             187 
    x5        c0                             590  c9                             118 
    x5        c2                             857 
    x6        Obj                            567  c3                             973 
    x6        c8                             387  c4                             291 
    x6        c0                             144  c7                             154 
    x6        c5                             759  c9                             670 
    x6        c1                             189  c2                             261 
    x6        c6                             985 
    x7        c9                             642  c5                             379 
    x7        c1                             678  c7                             749 
    x7        c2                             117  c4                             993 
    x7        Obj                            586  c8                             916 
    x7        c0                             735  c3                              23 
    x7        c6                             246 
    x8        c5                             748  c7                             782 
    x8        c2                             822  c4                             446 
    x8        c1                             351  c6                             811 
    x8        c0                             765  c8                             192 
    x8        Obj                            973  c3                             963 
    x8        c9                             665 
    x9        c9                             926  c4                             206 
    x9        c8                             732  c6                             973 
    x9        c0                             978  Obj                            660 
    x9        c1                             101  c3                             318 
    x9        c7                             620  c5                             833 
    x9        c2                             797 
    x10       c9                             944  c3                             627 
    x10       Obj                            831  c4                             324 
    x10       c8                             824  c6                             868 
    x10       c0                             131  c5                             886 
    x10       c7                             256  c2                              25 
    x10       c1                             443 
    x11       c1                             583  c8                             587 
    x11       c0                             819  c9                             559 
    x11       c2                             426  c7                              29 
    x11       c3                             194  c6                             918 
    x11       c4                             475  c5                             228 
    x11       Obj                            567 
    x12       Obj                            433  c5                             114 
    x12       c3                             797  c1                             524 
    x12       c7                             239  c9                             105 
    x12       c8                             282  c0                             254 
    x12       c6                             257  c2                             905 
    x12       c4                             329 
    x13       c5                             309  c8                             198 
    x13       c3                             322  c7                             858 
    x13       c9                             128  c0                             169 
    x13       c1                             125  c6                             290 
    x13       c2                              87  c4                              88 
    x13       Obj                            592 
    x14       Obj                            882  c4                             511 
    x14       c5                             798  c6                             576 
    x14       c7                             785  c1                             545 
    x14       c2                             889  c0                             770 
    x14       c3                             940  c9                             505 
    x14       c8                             818 
    x15       c9                             503  c1                             150 
    x15       c2                             987  c7                             413 
    x15       c6                             224  c8                             945 
    x15       Obj                            732  c3                             577 
    x15       c0                             258  c5                              68 
    x15       c4                             111 
    x16       c3                              51  Obj                            630 
    x16       c5                             152  c9                              94 
    x16       c1                             343  c4                             386 
    x16       c7                             525  c6                             661 
    x16       c0                             886  c8                             485 
    x16       c2                             566 
    x17       c7                             573  c3                             131 
    x17       c9                             647  Obj                            472 
    x17       c4                             152  c2                             306 
    x17       c1                             125  c5                             298 
    x17       c6                             482  c0                              12 
    x17       c8                             229 
    x18       c8                             840  c1                             127 
    x18       c5                             267  c6                              48 
    x18       c0                             301  c3                             558 
    x18       c9                             584  Obj                            671 
    x18       c7                             893  c2                             886 
    x18       c4                             545 
    x19       Obj                            731  c5                              23 
    x19       c8                             509  c0                             699 
    x19       c9                             910  c2                             749 
    x19       c6                             411  c3                             760 
    x19       c4                             470  c7                              20 
    x19       c1                             778 
    x20       c1                             162  c7                             933 
    x20       c3                             594  c4                             834 
    x20       Obj                            910  c9                             303 
    x20       c8                             268  c0                             293 
    x20       c5                             489  c2                             820 
    x20       c6                             497 
    x21       c9                             550  c1                             376 
    x21       c2                             193  c4                             884 
    x21       Obj                            769  c5                             370 
    x21       c0                             234  c6                             876 
    x21       c3                             975  c8                             749 
    x21       c7                             457 
    x22       c8                             726  Obj                            817 
    x22       c0                             267  c1                             242 
    x22       c9                              40  c2                             370 
    x22       c5                             533  c7                             963 
    x22       c4                             129  c3                             435 
    x22       c6                             770 
    x23       c8                             442  c6                             352 
    x23       c0                              26  Obj                            465 
    x23       c9                             134  c1                             184 
    x23       c2                             478  c5                             619 
    x23       c7                               4  c4                             994 
    x23       c3                             221 
    x24       c3                             441  c0                             681 
    x24       c6                             881  c9                              55 
    x24       Obj                            854  c1                             842 
    x24       c7                              97  c2                             860 
    x24       c4                             748  c5                             607 
    x24       c8                             685 
    x25       c9                             474  c0                             370 
    x25       c3                             457  c1                             444 
    x25       c7                             953  c8                             741 
    x25       Obj                            858  c6                             932 
    x25       c5                             331  c4                             307 
    x25       c2                             336 
    x26       Obj                            838  c5                             392 
    x26       c9                             183  c2                             598 
    x26       c0                             280  c3                             379 
    x26       c7                             916  c8                             262 
    x26       c4                             496  c1                             939 
    x26       c6                             298 
    x27       c5                             950  c0                             434 
    x27       c3                             144  Obj                            576 
    x27       c7                             525  c6                             747 
    x27       c1                             618  c8                             103 
    x27       c9                             503  c4                              45 
    x27       c2                             544 
    x28       c1                              61  c9                              20 
    x28       Obj                            642  c7                             197 
    x28       c6                             374  c2                             483 
    x28       c3                             614  c8                             369 
    x28       c0                             165  c4                             103 
    x28       c5                             683 
    x29       c8                             784  c9                             986 
    x29       c7                              64  c6                              42 
    x29       c0                             450  Obj                            895 
    x29       c4                             562  c3                             166 
    x29       c2                             590  c5                             862 
    x29       c1                             508 
    x30       c0                             601  c6                             584 
    x30       c3                             922  c7                             695 
    x30       c1                             890  Obj                            771 
    x30       c4                             119  c8                             940 
    x30       c9                             387  c5                             230 
    x30       c2                             808 
    x31       c7                             591  c4                             102 
    x31       c1                             256  c2                             689 
    x31       c0                             667  Obj                            947 
    x31       c6                             488  c8                             667 
    x31       c3                             450  c5                             322 
    x31       c9                             809 
    x32       c7                             584  c3                              72 
    x32       c4                             145  c6                             632 
    x32       c2                              23  c1                               8 
    x32       c5                             731  c9                              22 
    x32       c8                             827  c0                             232 
    x32       Obj                            696 
    x33       c2                              65  c0                             851 
    x33       c8                             715  c1                             494 
    x33       c3                             593  c9                             268 
    x33       Obj                            511  c4                             471 
    x33       c7                              17  c6                             192 
    x33       c5                             666 
    x34       c4                             173  c6                              34 
    x34       c9                             796  c0                             661 
    x34       c3                             423  c5                              44 
    x34       c7                             871  c2                             521 
    x34       Obj                            681  c1                             624 
    x34       c8                             604 
    x35       c4                             442  c5                             402 
    x35       c9                             150  c3                             998 
    x35       Obj                            518  c7                             532 
    x35       c8                             819  c2                             489 
    x35       c1                             126  c0                             532 
    x35       c6                             637 
    x36       c6                             293  c2                             603 
    x36       c1                             526  c9                             711 
    x36       c7                             228  c8                             427 
    x36       Obj                            776  c5                             238 
    x36       c4                             639  c3                             299 
    x36       c0                             369 
    x37       c4                             175  c9                             527 
    x37       c8                              51  c6                             423 
    x37       c2                             920  c1                             909 
    x37       Obj                            682  c5                             278 
    x37       c7                             919  c0                              80 
    x37       c3                             767 
    x38       c0                             915  Obj                            617 
    x38       c2                             656  c4                             487 
    x38       c1                              39  c6                             815 
    x38       c9                             505  c7                             262 
    x38       c8                             868  c5                             471 
    x38       c3                             345 
    x39       c8                             687  c6                             835 
    x39       Obj                           1046  c0                             623 
    x39       c5                             945  c1                             946 
    x39       c7                             753  c2                             881 
    x39       c9                              16  c4                             780 
    x39       c3                             410 
    x40       c3                             643  c9                             431 
    x40       c7                             644  c1                             928 
    x40       c4                             182  c2                             563 
    x40       c6                             180  c0                             436 
    x40       c8                              64  c5                             928 
    x40       Obj                            842 
    x41       Obj                           1013  c0                             922 
    x41       c8                             620  c7                             668 
    x41       c4                              24  c1                             903 
    x41       c6                             790  c5                             720 
    x41       c2                             310  c9                             848 
    x41       c3                             323 
    x42       c8                             569  c0                              19 
    x42       c9                             156  c5                              29 
    x42       c7                             816  Obj                            435 
    x42       c3                             753  c6                             832 
    x42       c2                             153  c1                             587 
    x42       c4                             390 
    x43       c1                             428  c8                             375 
    x43       c0                             895  c9                             901 
    x43       c6                             276  c3                             645 
    x43       c4                             508  Obj                            709 
    x43       c5                             447  c2                             123 
    x43       c7                             923 
    x44       c7                             247  Obj                            578 
    x44       c8                              39  c1                             111 
    x44       c2                              54  c0                             582 
    x44       c9                             772  c3                              89 
    x44       c6                             104  c4                             688 
    x44       c5                             102 
    x45       c5                             536  Obj                            964 
    x45       c1                             444  c2                             260 
    x45       c0                             838  c7                             131 
    x45       c4                             493  c9                             709 
    x45       c8                             682  c3                             455 
    x45       c6                             479 
    x46       c8                             139  c3                             511 
    x46       c6                             463  c5                             819 
    x46       c7                             264  c1                              37 
    x46       c2                             562  c9                             437 
    x46       c0                             558  c4                             879 
    x46       Obj                            739 
    x47       c3                             445  c1                             604 
    x47       c2                             765  c0                             530 
    x47       c4                             752  c6                             971 
    x47       c9                             724  c8                             281 
    x47       c5                             946  Obj                            821 
    x47       c7                             626 
    x48       c8                             318  Obj                            682 
    x48       c6                             198  c4                             864 
    x48       c2                              39  c9                             556 
    x48       c7                             641  c0                             272 
    x48       c5                              81  c3                             918 
    x48       c1                             794 
    x49       c5                              12  c7                             219 
    x49       c3                             263  c0                             297 
    x49       c1                             843  c8                             600 
    x49       c9                             978  c4                             917 
    x49       c2                             611  Obj                            625 
    x49       c6                             578 
    x50       c3                              79  c8                             687 
    x50       c9                             607  c4                             989 
    x50       c2                             283  c7                              35 
    x50       c5                             282  c6                             485 
    x50       Obj                            680  c0                             469 
    x50       c1                             515 
    x51       c6                             398  c8                             184 
    x51       c2                             469  c7                              86 
    x51       c4                             918  c1                             581 
    x51       c3                             111  c0                             702 
    x51       c9                             807  c5                             614 
    x51       Obj                            698 
    x52       c3                              27  c8                             975 
    x52       c5                             843  c2                             962 
    x52       c7                             316  c6                             853 
    x52       c1                             799  c4                             613 
    x52       c0                             621  c9                             794 
    x52       Obj                            866 
    x53       c5                             802  c2                             716 
    x53       c6                             741  c0                              24 
    x53       c7                              18  c1                             548 
    x53       c4                             195  c3                             245 
    x53       Obj                            796  c9                             759 
    x53       c8                              97 
    x54       c1                             881  c8                             152 
    x54       c3                              72  c6                             461 
    x54       c5                             856  c0                             323 
    x54       c9                             156  Obj                            916 
    x54       c7                             318  c4                             855 
    x54       c2                             291 
    x55       c5                             685  c4                             149 
    x55       c9                             158  Obj                            571 
    x55       c6                             381  c0                              45 
    x55       c7                             779  c1                             419 
    x55       c2                             628  c8                             171 
    x55       c3                             398 
    x56       Obj                            473  c4                             262 
    x56       c3                             116  c5                              58 
    x56       c8                              84  c0                              58 
    x56       c2                              71  c9                             218 
    x56       c1                               4  c7                             521 
    x56       c6                              23 
    x57       c6                             154  c5                             159 
    x57       c9                             342  c1                             941 
    x57       c8                             409  Obj                            468 
    x57       c2                             848  c3                             355 
    x57       c7                             621  c4                             427 
    x57       c0                             410 
    x58       c8                             157  c9                             473 
    x58       c0                              49  c4                             497 
    x58       Obj                            639  c3                             416 
    x58       c2                             363  c1                             757 
    x58       c5                             911  c6                             153 
    x58       c7                             976 
    x59       c5                             437  c3                             615 
    x59       c7                             902  c6                             919 
    x59       c9                             335  c1                             613 
    x59       c4                             535  c2                              26 
    x59       c8                             658  c0                             960 
    x59       Obj                            608 
    x60       c6                             499  c1                             467 
    x60       c5                             687  c9                             949 
    x60       c8                             807  c0                             835 
    x60       c2                             544  c4                             481 
    x60       Obj                            934  c7                             745 
    x60       c3                             296 
    x61       c6                             487  c5                             290 
    x61       c2                             294  Obj                            772 
    x61       c9                             750  c8                             435 
    x61       c7                             432  c4                              17 
    x61       c3                             629  c1                             606 
    x61       c0                             962 
    x62       c2                             307  c6                              64 
    x62       c9                             170  c0                             133 
    x62       c5                             744  c8                             760 
    x62       c7                             303  c4                             763 
    x62       Obj                            692  c1                             118 
    x62       c3                             328 
    x63       Obj                            653  c4                             271 
    x63       c6                             289  c7                              77 
    x63       c2                             261  c8                             665 
    x63       c5                              68  c3                             427 
    x63       c9                             104  c0                             357 
    x63       c1                             963 
    x64       c2                             401  c7                             218 
    x64       c5                             749  c6                             929 
    x64       c9                             163  c8                             967 
    x64       c1                             919  c0                             840 
    x64       c3                             418  Obj                           1010 
    x64       c4                             171 
    x65       c4                             953  c8                             649 
    x65       Obj                           1069  c2                             832 
    x65       c3                              98  c6                             572 
    x65       c5                             336  c7                             195 
    x65       c1                             907  c9                             713 
    x65       c0                             950 
    x66       Obj                            585  c2                             230 
    x66       c6                             692  c9                             804 
    x66       c3                             808  c1                             290 
    x66       c5                             510  c7                             316 
    x66       c0                             393  c4                             212 
    x66       c8                             524 
    x67       c8                             827  c3                             642 
    x67       c7                             169  c5                             204 
    x67       c2                             361  c9                             936 
    x67       Obj                            849  c1                             774 
    x67       c4                             585  c0                              32 
    x67       c6                             334 
    x68       c7                             250  Obj                            903 
    x68       c9                             212  c0                             337 
    x68       c1                             793  c2                             468 
    x68       c6                             250  c4                             487 
    x68       c5                             243  c8                             906 
    x68       c3                             637 
    x69       c7                             911  c3                             759 
    x69       c0                             793  c1                             548 
    x69       c4                             438  c8                             661 
    x69       c5                              53  c9                             421 
    x69       Obj                            920  c6                             631 
    x69       c2                             516 
    x70       c7                             870  c6                             301 
    x70       c3                             868  c5                             915 
    x70       c8                             468  c2                             183 
    x70       c9                             549  Obj                            895 
    x70       c4                              60  c0                             236 
    x70       c1                             114 
    x71       c4                             654  c8                             533 
    x71       c3                             119  c0                             891 
    x71       c1                             234  c7                             130 
    x71       c6                             773  Obj                            835 
    x71       c5                             478  c2                             750 
    x71       c9                             184 
    x72       c0                             839  c3                             697 
    x72       Obj                            701  c1                             305 
    x72       c8                             125  c7                             332 
    x72       c5                             544  c2                             858 
    x72       c6                             653  c4                             215 
    x72       c9                             188 
    x73       c7                             275  c2                             803 
    x73       Obj                           1000  c9                             661 
    x73       c1                             390  c3                             234 
    x73       c5                             847  c8                             810 
    x73       c6                             799  c0                             305 
    x73       c4                             651 
    x74       c2                             823  c5                             219 
    x74       c7                             543  c6                             616 
    x74       c8                             867  c9                             939 
    x74       Obj                            879  c0                             924 
    x74       c3                             105  c4                             292 
    x74       c1                             670 
    x75       c6                             862  c7                             462 
    x75       c5                             384  c9                             733 
    x75       c8                             535  c2                             748 
    x75       Obj                           1075  c4                             684 
    x75       c1                             540  c3                             695 
    x75       c0                             301 
    x76       Obj                            527  c5                             649 
    x76       c7                             549  c4                             580 
    x76       c2                             202  c6                             850 
    x76       c0                             206  c8                             876 
    x76       c9                             626  c3                             295 
    x76       c1                              69 
    x77       c1                             271  c5                             595 
    x77       c8                             106  c2                             332 
    x77       Obj                            921  c4                             419 
    x77       c3                             694  c9                             677 
    x77       c7                             728  c0                             399 
    x77       c6                             370 
    x78       c3                             944  c4                             990 
    x78       c8                             847  Obj                            790 
    x78       c6                             869  c2                             614 
    x78       c0                             935  c7                             864 
    x78       c9                             102  c1                             455 
    x78       c5                             666 
    x79       c5                             694  c9                             355 
    x79       c4                             415  c1                             843 
    x79       c8                             851  c0                             699 
    x79       c2                              56  c3                             185 
    x79       c6                             330  Obj                            869 
    x79       c7                             801 
    x80       c7                             725  c2                             921 
    x80       c6                             780  Obj                            991 
    x80       c5                             708  c9                             487 
    x80       c8                             546  c3                             606 
    x80       c0                             492  c4                               6 
    x80       c1                             898 
    x81       c3                             555  c8                             318 
    x81       c6                             999  c4                             897 
    x81       c0                             361  c9                              72 
    x81       Obj                            524  c1                             508 
    x81       c5                             164  c7                             750 
    x81       c2                              62 
    x82       c2                             717  c1                             737 
    x82       c0                             100  c8                             357 
    x82       c9                             207  c6                             531 
    x82       c3                             647  c7                             685 
    x82       c5                             238  c4                             188 
    x82       Obj                            441 
    x83       Obj                            906  c3                             956 
    x83       c8                             403  c5                             953 
    x83       c4                             122  c1                             208 
    x83       c2                             572  c7                             531 
    x83       c6                             492  c0                             898 
    x83       c9                             736 
    x84       c2                             245  c5                             105 
    x84       c4                             689  c7                             415 
    x84       c6                             561  Obj                            756 
    x84       c9                             567  c0                             755 
    x84       c1                             222  c8                             895 
    x84       c3                             339 
    x85       c0                             474  c5                             303 
    x85       c3                             555  c6                             491 
    x85       c7                              93  c8                             223 
    x85       Obj                            780  c9                             217 
    x85       c1                             883  c2                             863 
    x85       c4                             271 
    x86       c7                             272  Obj                            710 
    x86       c0                             740  c4                              18 
    x86       c1                             493  c3                             615 
    x86       c6                             851  c2                             869 
    x86       c8                             851  c9                             149 
    x86       c5                             195 
    x87       c0                             136  c7                             324 
    x87       c6                             331  Obj                            840 
    x87       c2                             375  c9                             605 
    x87       c5                             251  c1                             333 
    x87       c4                             124  c3                             308 
    x87       c8                             828 
    x88       c2                             257  c1                             658 
    x88       c4                             965  c6                             616 
    x88       c5                             741  Obj                            601 
    x88       c3                             650  c8                             229 
    x88       c9                             353  c0                             246 
    x88       c7                             167 
    x89       c1                             655  c9                             891 
    x89       c2                             735  c7                             908 
    x89       c0                             372  c8                               7 
    x89       Obj                            781  c5                             231 
    x89       c6                             572  c4                             568 
    x89       c3                             477 
    x90       c7                              78  c3                             458 
    x90       Obj                            792  c6                             839 
    x90       c0                             647  c8                             336 
    x90       c1                             680  c2                             106 
    x90       c4                             915  c9                             764 
    x90       c5                             395 
    x91       c5                             326  c6                             101 
    x91       c0                             245  c4                             771 
    x91       c7                             968  c2                             465 
    x91       c9                              37  c8                             981 
    x91       Obj                            755  c1                             247 
    x91       c3                             379 
    x92       c0                              76  c4                             236 
    x92       c1                             824  c9                              45 
    x92       c8                             425  c6                             351 
    x92       c3                             256  c5                             223 
    x92       Obj                            690  c2                              55 
    x92       c7                             918 
    x93       c0                             875  c8                             254 
    x93       Obj                            469  c9                             841 
    x93       c4                             204  c1                             391 
    x93       c5                             801  c3                              41 
    x93       c6                             287  c7                             154 
    x93       c2                             268 
    x94       c0                             288  c9                             572 
    x94       Obj                            801  c4                             476 
    x94       c8                             732  c1                             621 
    x94       c6                             425  c7                             292 
    x94       c3                             704  c5                             778 
    x94       c2                             220 
    x95       Obj                            653  c1                             171 
    x95       c3                             646  c9                             339 
    x95       c4                             258  c0                             356 
    x95       c6                              11  c5                             615 
    x95       c8                             389  c2                             228 
    x95       c7                             691 
    x96       c8                             874  c3                             548 
    x96       c9                             867  c5                              31 
    x96       c4                             993  c0                             791 
    x96       c6                             610  c7                             967 
    x96       c2                              97  Obj                            905 
    x96       c1                             136 
    x97       c1                             997  c3                             880 
    x97       c4                             918  c9                             221 
    x97       c6                             937  c7                             925 
    x97       c0                             257  Obj                            928 
    x97       c2                             988  c8                             118 
    x97       c5                             152 
    x98       c6                             515  Obj                            620 
    x98       c2                             684  c9                             490 
    x98       c5                             539  c0                             616 
    x98       c7                             904  c4                             609 
    x98       c8                             830  c1                              82 
    x98       c3                             670 
    x99       c3                             383  c4                             337 
    x99       c5                             790  c2                             756 
    x99       c8                             599  Obj                            906 
    x99       c0                             361  c7                             251 
    x99       c6                              71  c1                             394 
    x99       c9                             526 
    INTEND    'MARKER'                            'INTEND'                           
RHS
    RHS       c0                           23993  c1                           24995 
    RHS       c2                           24551  c3                           24181 
    RHS       c4                           23179  c5                           23786 
    RHS       c6                           26093  c7                           25374 
    RHS       c8                           26242  c9                           24131 
BOUNDS
 BV Bound     x0                                 
 BV Bound     x1                                 
 BV Bound     x2                                 
 BV Bound     x3                                 
 BV Bound     x4                                 
 BV Bound     x5                                 
 BV Bound     x6                                 
 BV Bound     x7                                 
 BV Bound     x8                                 
 BV Bound     x9                                 
 BV Bound     x10                                
 BV Bound     x11                                
 BV Bound     x12                                
 BV Bound     x13                                
 BV Bound     x14                                
 BV Bound     x15                                
 BV Bound     x16                                
 BV Bound     x17                                
 BV Bound     x18                                
 BV Bound     x19                                
 BV Bound     x20                                
 BV Bound     x21                                
 BV Bound     x22                                
 BV Bound     x23                                
 BV Bound     x24                                
 BV Bound     x25                                
 BV Bound     x26                                
 BV Bound     x27                                
 BV Bound     x28                                
 BV Bound     x29                                
 BV Bound     x30                                
 BV Bound     x31                                
 BV Bound     x32                                
 BV Bound     x33                                
 BV Bound     x34                                
 BV Bound     x35                                
 BV Bound     x36                                
 BV Bound     x37                                
 BV Bound     x38                                
 BV Bound     x39                                
 BV Bound     x40                                
 BV Bound     x41                                
 BV Bound     x42                                
 BV Bound     x43                                
 BV Bound     x44                                
 BV Bound     x45                                
 BV Bound     x46                                
 BV Bound     x47                                
 BV Bound     x48                                
 BV Bound     x49                                
 BV Bound     x50                                
 BV Bound     x51                                
 BV Bound     x52                                
 BV Bound     x53                                
 BV Bound     x54                                
 BV Bound     x55                                
 BV Bound     x56                                
 BV Bound     x57                                
 BV Bound     x58                                
 BV Bound     x59                                
 BV Bound     x60                                
 BV Bound     x61                                
 BV Bound     x62                                
 BV Bound     x63                                
 BV Bound     x64                                
 BV Bound     x65                                
 BV Bound     x66                                
 BV Bound     x67                                
 BV Bound     x68                                
 BV Bound     x69                                
 BV Bound     x70                                
 BV Bound     x71                                
 BV Bound     x72                                
 BV Bound     x73                                
 BV Bound     x74                                
 BV Bound     x75                                
 BV Bound     x76                                
 BV Bound     x77                                
 BV Bound     x78                                
 BV Bound     x79                                
 BV Bound     x80                                
 BV Bound     x81                                
 BV Bound     x82                                
 BV Bound     x83                                
 BV Bound     x84                                
 BV Bound     x85                                
 BV Bound     x86                                
 BV Bound     x87                                
 BV Bound     x88                                
 BV Bound     x89                                
 BV Bound     x90                                
 BV Bound     x91                                
 BV Bound     x92                                
 BV Bound     x93                                
 BV Bound     x94                                
 BV Bound     x95                                
 BV Bound     x96                                
 BV Bound     x97                                
 BV Bound     x98                                
 BV Bound     x99                                
ENDATA