* SCIP STATISTICS
*   Problem name     : mknap_3
*   Variables        : 100 (100 binary, 0 integer, 0 implicit integer, 0 continuous)
*   Constraints      : 10
NAME          mknap_3
OBJSENSE
  MAX
ROWS
 N  Obj 
 L  c0 
 L  c1 
 L  c2 
 L  c3 
 L  c4 
 L  c5 
 L  c6 
 L  c7 
 L  c8 
 L  c9 
COLUMNS
    INTSTART  'MARKER'                            'INTORG'                           
    x0        Obj                            846  c5                             830 
    x0        c4                             821  c6                               2 
    x0        c3                             518  c7                             872 
    x0        c2                               7  c8                             957 
    x0        c1                             598  c9                             383 
    x0        c0                             478 
    x1        Obj                            578  c5                              72 
    x1        c4                             390  c6                             281 
    x1        c3                             448  c7                             394 
    x1        c2                              60  c8                             893 
    x1        c1                             280  c9                             363 
    x1        c0                             209 
    x2        c9                             611  c5                             961 
    x2        Obj                            811  c3                             516 
    x2        c1                             441  c4                              11 
    x2        c0                             549  c8                             975 
    x2        c7                             735  c2                             644 
    x2        c6                             882 
    x3        c9                             279  c8                             742 
    x3        c2                             944  c1                             103 
    x3        c6                             914  c7                             740 
    x3        c3                             406  Obj                            890 
    x3        c4                             542  c0                             155 
    x3        c5                             289 
    x4        c4                             279  c3                             727 
    x4        c0                             805  c6                             652 
    x4        Obj                            795  c1                             594 
    x4        c7                              91  c2                              50 
    x4        c5                             882  c8                             687 
    x4        c9                             531 
    x5        c8                             732  c3                             939 
    x5        c1                             278  c5                             131 
    x5        c6                             659  c7                              21 
    x5        Obj                            521  c4                             386 
    x5        c0                              64  c9                             739 
    x5        c2                             492 
    x6        Obj                            718  c3                             575 
    x6        c8                             916  c4                             694 
    x6        c0                             528  c7                             272 
    x6        c5                             723  c9                             303 
    x6        c1                             272  c2                             580 
    x6        c6                             733 
    x7        c9                             183  c5                             265 
    x7        c1                             703  c7                             518 
    x7        c2                             209  c4                             586 
    x7        Obj                            757  c8                             790 
    x7        c0                             904  c3                              82 
    x7        c6                             553 
    x8        c5                             467  c7                             886 
    x8        c2                             353  c4                             377 
    x8        c1                             781  c6                             693 
    x8        c0                             832  c8                             232 
    x8        Obj                            995  c3                             628 
    x8        c9                             910 
    x9        c9                             102  c4                             757 
    x9        c8                             150  c6                             747 
    x9        c0                              14  Obj                            825 
    x9        c1                             701  c3                              78 
    x9        c7                             540  c5                             613 
    x9        c2                             323 
    x10       c9                             481  c3                             950 
    x10       Obj                            843  c4                             234 
    x10       c8                             942  c6                             997 
    x10       c0                             606  c5                             307 
    x10       c7                             452  c2                             308 
    x10       c1                             338 
    x11       c1                             273  c8                             643 
    x11       c0                             436  c9                              30 
    x11       c2                             875  c7                             964 
    x11       c3                             135  c6                             535 
    x11       c4                             691  c5                             896 
    x11       Obj                            874 
    x12       Obj                            834  c5                             427 
    x12       c3                             510  c1                             821 
    x12       c7                             319  c9                             496 
    x12       c8                             908  c0                             221 
    x12       c6                             701  c2                             780 
    x12       c4                             491 
    x13       c5                             424  c8                             593 
    x13       c3                             481  c7                               7 
    x13       c9                              53  c0                             937 
    x13       c1                             798  c6                             170 
    x13       c2                             324  c4                             710 
    x13       Obj                            831 
    x14       Obj                            556  c4                             171 
    x14       c5                              38  c6                             236 
    x14       c7                             958  c1                             801 
    x14       c2                             178  c0                             477 
    x14       c3                             671  c9                             862 
    x14       c8                             363 
    x15       c9                             782  c1                             376 
    x15       c2                             479  c7                             350 
    x15       c6                             921  c8                             238 
    x15       Obj                            601  c3                             359 
    x15       c0                             646  c5                             320 
    x15       c4                              80 
    x16       c3                             436  Obj                            472 
    x16       c5                             228  c9                             555 
    x16       c1                             712  c4                             183 
    x16       c7                             976  c6                             130 
    x16       c0                             472  c8                              97 
    x16       c2                             226 
    x17       c7                               1  c3                             575 
    x17       c9                             807  Obj                            487 
    x17       c4                              28  c2                             637 
    x17       c1                             164  c5                             333 
    x17       c6                             428  c0                             708 
    x17       c8                             517 
    x18       c8                             913  c1                             937 
    x18       c5                             234  c6                             553 
    x18       c0                             678  c3                             916 
    x18       c9                             377  Obj                            640 
    x18       c7                             851  c2                             251 
    x18       c4                             315 
    x19       Obj                            885  c5                             222 
    x19       c8                             709  c0                             633 
    x19       c9                             203  c2                             870 
    x19       c6                             520  c3                              89 
    x19       c4                             457  c7                             652 
    x19       c1                             602 
    x20       c1                             156  c7                             802 
    x20       c3                             999  c4                             331 
    x20       Obj                            766  c9                             572 
    x20       c8                             119  c0                               7 
    x20       c5                             687  c2                             392 
    x20       c6                             633 
    x21       c9                             926  c1                             114 
    x21       c2                            1000  c4                             751 
    x21       Obj                            867  c5                             783 
    x21       c0                             110  c6                             941 
    x21       c3                              15  c8                             382 
    x21       c7                             136 
    x22       c8                             625  Obj                            849 
    x22       c0                             435  c1                             220 
    x22       c9                             908  c2                             782 
    x22       c5                             350  c7                             685 
    x22       c4                             992  c3                             245 
    x22       c6                             440 
    x23       c8                             851  c6                             959 
    x23       c0                             929  Obj                           1053 
    x23       c9                             739  c1                             343 
    x23       c2                             652  c5                             960 
    x23       c7                              89  c4                             706 
    x23       c3                             891 
    x24       c3                             713  c0                             925 
    x24       c6                             349  c9                             692 
    x24       Obj                            532  c1                             749 
    x24       c7                              14  c2                             371 
    x24       c4                             238  c5                             472 
    x24       c8                             233 
    x25       c9                             808  c0                             584 
    x25       c3                             470  c1                             713 
    x25       c7                             935  c8                             988 
    x25       Obj                           1120  c6                             318 
    x25       c5                             196  c4                             758 
    x25       c2                             929 
    x26       Obj                            664  c5                             202 
    x26       c9                             489  c2                             274 
    x26       c0                             556  c3                             469 
    x26       c7                             387  c8                             624 
    x26       c4                             309  c1                             121 
    x26       c6                             153 
    x27       c5                             592  c0                             795 
    x27       c3                             654  Obj                           1030 
    x27       c7                             678  c6                             529 
    x27       c1                             240  c8                             354 
    x27       c9                             804  c4                             606 
    x27       c2                             693 
    x28       c1                              21  c9                             915 
    x28       Obj                            624  c7                             915 
    x28       c6                             601  c2                             919 
    x28       c3                             489  c8                             708 
    x28       c0                             435  c4                             389 
    x28       c5                             231 
    x29       c8                             476  c9                              70 
    x29       c7                             243  c6                             122 
    x29       c0                              73  Obj                            627 
    x29       c4                             952  c3                             826 
    x29       c2                              12  c5                             255 
    x29       c1                              26 
    x30       c0                             934  c6                             145 
    x30       c3                             582  c7                             322 
    x30       c1                             580  Obj                            905 
    x30       c4                             393  c8                             793 
    x30       c9                             540  c5                             789 
    x30       c2                             737 
    x31       c7                             916  c4                             958 
    x31       c1                             760  c2                             321 
    x31       c0                             534  Obj                           1051 
    x31       c6                             820  c8                             569 
    x31       c3                             451  c5                             461 
    x31       c9                             456 
    x32       c7                             783  c3                             887 
    x32       c4                             867  c6                             101 
    x32       c2                             758  c1                              29 
    x32       c5                             544  c9                             273 
    x32       c8                             642  c0                             355 
    x32       Obj                            532 
    x33       c2                             707  c0                             954 
    x33       c8                             620  c1                             295 
    x33       c3                             559  c9                             727 
    x33       Obj                            906  c4                             923 
    x33       c7                              32  c6                             660 
    x33       c5                              71 
    x34       c4                              97  c6                             867 
    x34       c9                             681  c0                             834 
    x34       c3                             613  c5                             954 
    x34       c7                             818  c2                             122 
    x34       Obj                            695  c1                             516 
    x34       c8                             436 
    x35       c4                             678  c5                             622 
    x35       c9                             666  c3                             441 
    x35       Obj                           1121  c7                             943 
    x35       c8                             701  c2                             383 
    x35       c1                             707  c0                             347 
    x35       c6                             928 
    x36       c6                             923  c2                             775 
    x36       c1                             429  c9                             579 
    x36       c7                             654  c8                             214 
    x36       Obj                            771  c5                              29 
    x36       c4                             114  c3                             591 
    x36       c0                             730 
    x37       c4                             542  c9                             658 
    x37       c8                              49  c6                              52 
    x37       c2                             538  c1                             209 
    x37       Obj                            845  c5                              61 
    x37       c7                             457  c0                             872 
    x37       c3                             314 
    x38       c0                             407  Obj                            735 
    x38       c2                             111  c4                             518 
    x38       c1                             375  c6                             533 
    x38       c9                             740  c7                             257 
    x38       c8                             261  c5                             618 
    x38       c3                              78 
    x39       c8                             481  c6                             550 
    x39       Obj                            759  c0                             789 
    x39       c5                             790  c1                             112 
    x39       c7                             322  c2                             170 
    x39       c9                             542  c4                             867 
    x39       c3                             564 
    x40       c3                             120  c9                             927 
    x40       c7                             315  c1                             397 
    x40       c4                              92  c2                             500 
    x40       c6                             750  c0                             968 
    x40       c8                             909  c5                             208 
    x40       Obj                            684 
    x41       Obj                           1088  c0                             924 
    x41       c8                             705  c7                             426 
    x41       c4                             519  c1                             809 
    x41       c6                             525  c5                              48 
    x41       c2                             740  c9                             989 
    x41       c3                             463 
    x42       c8                             724  c0                             519 
    x42       c9                             636  c5                             552 
    x42       c7                             520  Obj                            773 
    x42       c3                             190  c6                              98 
    x42       c2                             995  c1                             782 
    x42       c4                             199 
    x43       c1                             712  c8                             365 
    x43       c0                             945  c9                              26 
    x43       c6                             600  c3                             388 
    x43       c4                             496  Obj                            967 
    x43       c5                             687  c2                             630 
    x43       c7                             743 
    x44       c7                             273  Obj                            942 
    x44       c8                             409  c1                             306 
    x44       c2                             210  c0                             704 
    x44       c9                             985  c3                             674 
    x44       c6                             271  c4                             792 
    x44       c5                             723 
    x45       c5                             552  Obj                            906 
    x45       c1                             529  c2                             697 
    x45       c0                             997  c7                             901 
    x45       c4                             932  c9                             249 
    x45       c8                             880  c3                             426 
    x45       c6                             624 
    x46       c8                             480  c3                             498 
    x46       c6                             794  c5                             783 
    x46       c7                             855  c1                             375 
    x46       c2                             200  c9                             823 
    x46       c0                             866  c4                             141 
    x46       Obj                            626 
    x47       c3                             859  c1                             212 
    x47       c2                             688  c0                             380 
    x47       c4                             393  c6                              69 
    x47       c9                             645  c8                             944 
    x47       c5                             942  Obj                            827 
    x47       c7                             956 
    x48       c8                             276  Obj                            814 
    x48       c6                             368  c4                             517 
    x48       c2                             542  c9                             257 
    x48       c7                             368  c0                             248 
    x48       c5                             924  c3                             665 
    x48       c1                             335 
    x49       c5                             348  c7                             510 
    x49       c3                              15  c0                              96 
    x49       c1                             510  c8                             603 
    x49       c9                             617  c4                             282 
    x49       c2                             654  Obj                            573 
    x49       c6                             134 
    x50       c3                             443  c8                             851 
    x50       c9                             685  c4                              96 
    x50       c2                             668  c7                             777 
    x50       c5                             300  c6                             963 
    x50       Obj                            851  c0                             476 
    x50       c1                             662 
    x51       c6                             641  c8                             518 
    x51       c2                              57  c7                             972 
    x51       c4                             813  c1                              16 
    x51       c3                             916  c0                               7 
    x51       c9                             235  c5                             586 
    x51       Obj                            925 
    x52       c3                             299  c8                              70 
    x52       c5                             577  c2                             820 
    x52       c7                             752  c6                              68 
    x52       c1                             457  c4                             576 
    x52       c0                             752  c9                             595 
    x52       Obj                            670 
    x53       c5                             380  c2                             315 
    x53       c6                             952  c0                             565 
    x53       c7                             463  c1                             699 
    x53       c4                             238  c3                             779 
    x53       Obj                            551  c9                             607 
    x53       c8                             381 
    x54       c1                             123  c8                             243 
    x54       c3                             158  c6                             270 
    x54       c5                             378  c0                             799 
    x54       c9                             780  Obj                            557 
    x54       c7                             518  c4                             900 
    x54       c2                             946 
    x55       c5                             876  c4                             326 
    x55       c9                             582  Obj                            596 
    x55       c6                             597  c0                             827 
    x55       c7                             155  c1                             393 
    x55       c2                              17  c8                             447 
    x55       c3                             804 
    x56       Obj                            669  c4                             973 
    x56       c3                             211  c5                              79 
    x56       c8                             479  c0                              99 
    x56       c2                             695  c9                             740 
    x56       c1                             160  c7                             343 
    x56       c6                             277 
    x57       c6                               7  c5                             678 
    x57       c9                             853  c1                             710 
    x57       c8                             421  Obj                            717 
    x57       c2                             354  c3                             567 
    x57       c7                             499  c4                             863 
    x57       c0                             769 
    x58       c8                             590  c9                             894 
    x58       c0                               9  c4                             923 
    x58       Obj                            907  c3                             572 
    x58       c2                              47  c1                              90 
    x58       c5                             585  c6                             666 
    x58       c7                             837 
    x59       c5                             980  c3                             602 
    x59       c7                             206  c6                             508 
    x59       c9                             612  c1                             896 
    x59       c4                             477  c2                              99 
    x59       c8                             245  c0                             228 
    x59       Obj                            810 
    x60       c6                             179  c1                             246 
    x60       c5                             170  c9                             724 
    x60       c8                             644  c0                             590 
    x60       c2                              47  c4                              39 
    x60       Obj                            454  c7                             707 
    x60       c3                             620 
    x61       c6                              83  c5                             266 
    x61       c2                             541  Obj                            985 
    x61       c9                             899  c8                             988 
    x61       c7                             468  c4                             329 
    x61       c3                             127  c1                             409 
    x61       c0                             786 
    x62       c2                             939  c6                             425 
    x62       c9                             676  c0                             355 
    x62       c5                             470  c8                             555 
    x62       c7                             494  c4                             761 
    x62       Obj                           1028  c1                             877 
    x62       c3                             222 
    x63       Obj                            940  c4                             792 
    x63       c6                             681  c7                             998 
    x63       c2                             933  c8                             771 
    x63       c5                             426  c3                             317 
    x63       c9                             371  c0                             263 
    x63       c1                             475 
    x64       c2                             965  c7                              30 
    x64       c5                             987  c6                             653 
    x64       c9                             833  c8                             634 
    x64       c1                             674  c0                             955 
    x64       c3                             893  Obj                            864 
    x64       c4                             208 
    x65       c4                             288  c8                              47 
    x65       Obj                            834  c2                             500 
    x65       c3                             943  c6                             788 
    x65       c5                             716  c7                             746 
    x65       c1                               1  c9                             526 
    x65       c0                             590 
    x66       Obj                            569  c2                              92 
    x66       c6                             989  c9                             240 
    x66       c3                             951  c1                             274 
    x66       c5                             385  c7                             401 
    x66       c0                             255  c4                             835 
    x66       c8                              72 
    x67       c8                             813  c3                             450 
    x67       c7                             715  c5                             175 
    x67       c2                             396  c9                             885 
    x67       Obj                            758  c1                             584 
    x67       c4                             580  c0                             604 
    x67       c6                             993 
    x68       c7                             964  Obj                            689 
    x68       c9                             797  c0                             989 
    x68       c1                             450  c2                             192 
    x68       c6                             649  c4                             479 
    x68       c5                             381  c8                             891 
    x68       c3                             855 
    x69       c7                             322  c3                             136 
    x69       c0                             723  c1                              94 
    x69       c4                              80  c8                             457 
    x69       c5                             508  c9                             162 
    x69       Obj                            718  c6                             929 
    x69       c2                             497 
    x70       c7                             273  c6                             952 
    x70       c3                             927  c5                             370 
    x70       c8                             487  c2                             185 
    x70       c9                             269  Obj                            922 
    x70       c4                             973  c0                             191 
    x70       c1                             915 
    x71       c4                              40  c8                             196 
    x71       c3                             234  c0                             258 
    x71       c1                             841  c7                             952 
    x71       c6                             492  Obj                            522 
    x71       c5                             279  c2                              41 
    x71       c9                             700 
    x72       c0                             664  c3                             974 
    x72       Obj                            885  c1                              25 
    x72       c8                             875  c7                             638 
    x72       c5                             790  c2                             262 
    x72       c6                             643  c4                             645 
    x72       c9                             381 
    x73       c7                             882  c2                             196 
    x73       Obj                            438  c9                             413 
    x73       c1                             599  c3                              93 
    x73       c5                             503  c8                             317 
    x73       c6                             203  c0                              37 
    x73       c4                             542 
    x74       c2                             180  c5                             145 
    x74       c7                             933  c6                             773 
    x74       c8                             552  c9                             136 
    x74       Obj                            924  c0                             805 
    x74       c3                             555  c4                             197 
    x74       c1                             377 
    x75       c6                             715  c7                             674 
    x75       c5                             967  c9                             923 
    x75       c8                             215  c2                             781 
    x75       Obj                            721  c4                             423 
    x75       c1                             934  c3                              69 
    x75       c0                             836 
    x76       Obj                            506  c5                              54 
    x76       c7                             284  c4                             349 
    x76       c2                             562  c6                             512 
    x76       c0                             552  c8                             521 
    x76       c9                             889  c3                             651 
    x76       c1                             270 
    x77       c1                             634  c5                             724 
    x77       c8                             599  c2                             773 
    x77       Obj                            891  c4                             534 
    x77       c3                             817  c9                             772 
    x77       c7                             765  c0                             792 
    x77       c6                              25 
    x78       c3                             990  c4                             722 
    x78       c8                             324  Obj                            774 
    x78       c6                             698  c2                             917 
    x78       c0                              86  c7                             436 
    x78       c9                             147  c1                             752 
    x78       c5                             798 
    x79       c5                             622  c9                              74 
    x79       c4                             907  c1                             669 
    x79       c8                             704  c0                             935 
    x79       c2                             798  c3                             658 
    x79       c6                             432  Obj                            904 
    x79       c7                             264 
    x80       c7                             812  c2                              63 
    x80       c6                             775  Obj                            895 
    x80       c5                              25  c9                             137 
    x80       c8                             591  c3                             758 
    x80       c0                             711  c4                             503 
    x80       c1                             704 
    x81       c3                             324  c8                              16 
    x81       c6                             234  c4                             235 
    x81       c0                             868  c9                             258 
    x81       Obj                            525  c1                             838 
    x81       c5                             278  c7                             476 
    x81       c2                             813 
    x82       c2                             837  c1                             953 
    x82       c0                             373  c8                             999 
    x82       c9                             246  c6                             154 
    x82       c3                             149  c7                             582 
    x82       c5                             319  c4                             604 
    x82       Obj                            743 
    x83       Obj                            452  c3                             361 
    x83       c8                             931  c5                              93 
    x83       c4                              18  c1                             970 
    x83       c2                             575  c7                             434 
    x83       c6                             360  c0                               9 
    x83       c9                             527 
    x84       c2                             288  c5                             629 
    x84       c4                             531  c7                             437 
    x84       c6                              28  Obj                            915 
    x84       c9                              94  c0                             635 
    x84       c1                             467  c8                             880 
    x84       c3                             747 
    x85       c0                             641  c5                             236 
    x85       c3                             338  c6                             268 
    x85       c7                             558  c8                             923 
    x85       Obj                            636  c9                             413 
    x85       c1                             329  c2                              43 
    x85       c4                             969 
    x86       c7                             795  Obj                            982 
    x86       c0                             441  c4                             906 
    x86       c1                             787  c3                             405 
    x86       c6                             205  c2                             465 
    x86       c8                             995  c9                             452 
    x86       c5                             203 
    x87       c0                             305  c7                             881 
    x87       c6                              98  Obj                            634 
    x87       c2                             280  c9                             485 
    x87       c5                              70  c1                              54 
    x87       c4                             954  c3                             374 
    x87       c8                             223 
    x88       c2                             773  c1                             516 
    x88       c4                             277  c6                             420 
    x88       c5                             410  Obj                            585 
    x88       c3                             916  c8                             563 
    x88       c9                             212  c0                             669 
    x88       c7                             242 
    x89       c1                             561  c9                             630 
    x89       c2                             951  c7                             909 
    x89       c0                             647  c8                              82 
    x89       Obj                            602  c5                             441 
    x89       c6                             416  c4                             602 
    x89       c3                              57 
    x90       c7                              68  c3                             525 
    x90       Obj                            768  c6                             846 
    x90       c0                             686  c8                             372 
    x90       c1                             358  c2                             987 
    x90       c4                             342  c9                             822 
    x90       c5                             905 
    x91       c5                             655  c6                             292 
    x91       c0                             640  c4                              91 
    x91       c7                             539  c2                             523 
    x91       c9                             662  c8                             290 
    x91       Obj                            711  c1                             433 
    x91       c3                             358 
    x92       c0                             625  c4                             877 
    x92       c1                             715  c9                             881 
    x92       c8                             764  c6                             304 
    x92       c3                             840  c5                             452 
    x92       Obj                            707  c2                             445 
    x92       c7                             879 
    x93       c0                             615  c8                             568 
    x93       Obj                            914  c9                             731 
    x93       c4                             786  c1                              11 
    x93       c5                             924  c3                             182 
    x93       c6                              90  c7                             465 
    x93       c2                             208 
    x94       c0                             165  c9                              58 
    x94       Obj                            858  c4                             434 
    x94       c8                             792  c1                             860 
    x94       c6                             512  c7                             651 
    x94       c3                             827  c5                             730 
    x94       c2                              47 
    x95       Obj                            757  c1                             888 
    x95       c3                             406  c9                             743 
    x95       c4                             737  c0                             491 
    x95       c6                             833  c5                             355 
    x95       c8                             247  c2                             553 
    x95       c7                             114 
    x96       c8                             317  c3                             583 
    x96       c9                             791  c5                             681 
    x96       c4                             132  c0                             934 
    x96       c6                             705  c7                             253 
    x96       c2                             662  Obj                            915 
    x96       c1                             613 
    x97       c1                             949  c3                             335 
    x97       c4                             204  c9                             287 
    x97       c6                             977  c7                             993 
    x97       c0                               6  Obj                            689 
    x97       c2                             606  c8                             493 
    x97       c5                             664 
    x98       c6                             255  Obj                            798 
    x98       c2                             411  c9                              97 
    x98       c5                             950  c0                              34 
    x98       c7                             483  c4                             750 
    x98       c8                             714  c1                             296 
    x98       c3                              32 
    x99       c3                             793  c4                             390 
    x99       c5                             212  c2                             200 
    x99       c8                             574  Obj                            646 
    x99       c0                             717  c7                             657 
    x99       c6                             525  c1                             300 
    x99       c9                              56 
    INTEND    'MARKER'                            'INTEND'                           
RHS
    RHS       c0                           13653  c1                           12041 
    RHS       c2                           12159  c3                           12833 
    RHS       c4                           12701  c5                           12121 
    RHS       c6                           12806  c7                           13888 
    RHS       c8                           13915  c9                           13493 
BOUNDS
 BV Bound     x0                                 
 BV Bound     x1                                 
 BV Bound     x2                                 
 BV Bound     x3                                 
 BV Bound     x4                                 
 BV Bound     x5                                 
 BV Bound     x6                                 
 BV Bound     x7                                 
 BV Bound     x8                                 
 BV Bound     x9                                 
 BV Bound     x10                                
 BV Bound     x11                                
 BV Bound     x12                                
 BV Bound     x13                                
 BV Bound     x14                                
 BV Bound     x15                                
 BV Bound     x16                                
 BV Bound     x17                                
 BV Bound     x18                                
 BV Bound     x19                                
 BV Bound     x20                                
 BV Bound     x21                                
 BV Bound     x22                                
 BV Bound     x23                                
 BV Bound     x24                                
 BV Bound     x25                                
 BV Bound     x26                                
 BV Bound     x27                                
 BV Bound     x28                                
 BV Bound     x29                                
 BV Bound     x30                                
 BV Bound     x31                                
 BV Bound     x32                                
 BV Bound     x33                                
 BV Bound     x34                                
 BV Bound     x35                                
 BV Bound     x36                                
 BV Bound     x37                                
 BV Bound     x38                                
 BV Bound     x39                                
 BV Bound     x40                                
 BV Bound     x41                                
 BV Bound     x42                                
 BV Bound     x43                                
 BV Bound     x44                                
 BV Bound     x45                                
 BV Bound     x46                                
 BV Bound     x47                                
 BV Bound     x48                                
 BV Bound     x49                                
 BV Bound     x50                                
 BV Bound     x51                                
 BV Bound     x52                                
 BV Bound     x53                                
 BV Bound     x54                                
 BV Bound     x55                                
 BV Bound     x56                                
 BV Bound     x57                                
 BV Bound     x58                                
 BV Bound     x59                                
 BV Bound     x60                                
 BV Bound     x61                                
 BV Bound     x62                                
 BV Bound     x63                                
 BV Bound     x64                                
 BV Bound     x65                                
 BV Bound     x66                                
 BV Bound     x67                                
 BV Bound     x68                                
 BV Bound     x69                                
 BV Bound     x70                                
 BV Bound     x71                                
 BV Bound     x72                                
 BV Bound     x73                                
 BV Bound     x74                                
 BV Bound     x75                                
 BV Bound     x76                                
 BV Bound     x77                                
 BV Bound     x78                                
 BV Bound     x79                                
 BV Bound     x80                                
 BV Bound     x81                                
 BV Bound     x82                                
 BV Bound     x83                                
 BV Bound     x84                                
 BV Bound     x85                                
 BV Bound     x86                                
 BV Bound     x87                                
 BV Bound     x88                                
 BV Bound     x89                                
 BV Bound     x90                                
 BV Bound     x91                                
 BV Bound     x92                                
 BV Bound     x93                                
 BV Bound     x94                                
 BV Bound     x95                                
 BV Bound     x96                                
 BV Bound     x97                                
 BV Bound     x98                                
 BV Bound     x99                                
ENDATA