* SCIP STATISTICS
*   Problem name     : mknap_16
*   Variables        : 100 (100 binary, 0 integer, 0 implicit integer, 0 continuous)
*   Constraints      : 10
NAME          mknap_16
OBJSENSE
  MAX
ROWS
 N  Obj 
 L  c0 
 L  c1 
 L  c2 
 L  c3 
 L  c4 
 L  c5 
 L  c6 
 L  c7 
 L  c8 
 L  c9 
COLUMNS
    INTSTART  'MARKER'                            'INTORG'                           
    x0        Obj                            929  c5                             699 
    x0        c4                             869  c6                             209 
    x0        c3                             747  c7                             732 
    x0        c2                             149  c8                             936 
    x0        c1                             364  c9                             727 
    x0        c0                             949 
    x1        Obj                            619  c5                             884 
    x1        c4                             619  c6                              10 
    x1        c3                             968  c7                             121 
    x1        c2                             732  c8                             161 
    x1        c1                             321  c9                             710 
    x1        c0                             384 
    x2        c9                             403  c5                             708 
    x2        Obj                            726  c3                             120 
    x2        c1                             790  c4                             738 
    x2        c0                             175  c8                             237 
    x2        c7                             795  c2                             647 
    x2        c6                             441 
    x3        c9                             853  c8                             182 
    x3        c2                             144  c1                             984 
    x3        c6                             697  c7                              24 
    x3        c3                             121  Obj                            504 
    x3        c4                             755  c0                             304 
    x3        c5                             130 
    x4        c4                             693  c3                             941 
    x4        c0                             105  c6                             265 
    x4        Obj                            664  c1                             772 
    x4        c7                               8  c2                             452 
    x4        c5                             264  c8                             949 
    x4        c9                              55 
    x5        c8                             684  c3                             353 
    x5        c1                             922  c5                             745 
    x5        c6                             934  c7                             851 
    x5        Obj                           1102  c4                             161 
    x5        c0                             834  c9                             684 
    x5        c2                              38 
    x6        Obj                            767  c3                             584 
    x6        c8                             328  c4                             124 
    x6        c0                             360  c7                             473 
    x6        c5                             128  c9                             797 
    x6        c1                             553  c2                             596 
    x6        c6                              36 
    x7        c9                             669  c5                             383 
    x7        c1                             839  c7                             284 
    x7        c2                             682  c4                             300 
    x7        Obj                           1123  c8                             980 
    x7        c0                             484  c3                             911 
    x7        c6                             938 
    x8        c5                             468  c7                             504 
    x8        c2                             338  c4                             268 
    x8        c1                              22  c6                             929 
    x8        c0                             226  c8                             949 
    x8        Obj                            800  c3                             433 
    x8        c9                             701 
    x9        c9                             165  c4                             875 
    x9        c8                             745  c6                             294 
    x9        c0                             598  Obj                           1086 
    x9        c1                             928  c3                             968 
    x9        c7                             122  c5                             996 
    x9        c2                             763 
    x10       c9                             800  c3                             781 
    x10       Obj                            656  c4                             851 
    x10       c8                             111  c6                             237 
    x10       c0                             345  c5                             419 
    x10       c7                             633  c2                             812 
    x10       c1                             833 
    x11       c1                             441  c8                             375 
    x11       c0                             996  c9                             200 
    x11       c2                             207  c7                             763 
    x11       c3                             395  c6                             923 
    x11       c4                             224  c5                             894 
    x11       Obj                            914 
    x12       Obj                            930  c5                             828 
    x12       c3                             539  c1                             757 
    x12       c7                             379  c9                             362 
    x12       c8                             386  c0                             276 
    x12       c6                             543  c2                             293 
    x12       c4                             550 
    x13       c5                             624  c8                             345 
    x13       c3                             182  c7                             268 
    x13       c9                             603  c0                             320 
    x13       c1                             929  c6                             518 
    x13       c2                             475  c4                             771 
    x13       Obj                            764 
    x14       Obj                           1006  c4                            1000 
    x14       c5                              43  c6                             310 
    x14       c7                             784  c1                             213 
    x14       c2                             374  c0                             977 
    x14       c3                             624  c9                             679 
    x14       c8                             296 
    x15       c9                             801  c1                             989 
    x15       c2                             399  c7                             121 
    x15       c6                             722  c8                             141 
    x15       Obj                           1002  c3                             988 
    x15       c0                             479  c5                             635 
    x15       c4                             357 
    x16       c3                             639  Obj                            658 
    x16       c5                             603  c9                             181 
    x16       c1                             570  c4                             368 
    x16       c7                             289  c6                             393 
    x16       c0                             429  c8                             616 
    x16       c2                             310 
    x17       c7                             482  c3                             970 
    x17       c9                             625  Obj                            824 
    x17       c4                              75  c2                             387 
    x17       c1                             632  c5                             226 
    x17       c6                             181  c0                              27 
    x17       c8                              84 
    x18       c8                             741  c1                             327 
    x18       c5                              79  c6                             816 
    x18       c0                             459  c3                             331 
    x18       c9                              76  Obj                            647 
    x18       c7                              91  c2                             345 
    x18       c4                             354 
    x19       Obj                            433  c5                             970 
    x19       c8                             520  c0                              40 
    x19       c9                             237  c2                             420 
    x19       c6                             226  c3                             150 
    x19       c4                             701  c7                             777 
    x19       c1                             119 
    x20       c1                              44  c7                             588 
    x20       c3                             590  c4                             980 
    x20       Obj                            934  c9                             893 
    x20       c8                             552  c0                             247 
    x20       c5                             342  c2                             855 
    x20       c6                             923 
    x21       c9                             928  c1                             843 
    x21       c2                             859  c4                             612 
    x21       Obj                            972  c5                              44 
    x21       c0                             409  c6                             855 
    x21       c3                             349  c8                             107 
    x21       c7                             145 
    x22       c8                             468  Obj                            579 
    x22       c0                             328  c1                             789 
    x22       c9                              99  c2                             997 
    x22       c5                             624  c7                             591 
    x22       c4                             228  c3                             210 
    x22       c6                             447 
    x23       c8                             927  c6                             443 
    x23       c0                              27  Obj                            524 
    x23       c9                             218  c1                               7 
    x23       c2                             689  c5                             522 
    x23       c7                             547  c4                             746 
    x23       c3                             608 
    x24       c3                             122  c0                             582 
    x24       c6                              54  c9                              71 
    x24       Obj                            810  c1                             237 
    x24       c7                             811  c2                             838 
    x24       c4                             347  c5                             719 
    x24       c8                             899 
    x25       c9                              52  c0                             372 
    x25       c3                              62  c1                              21 
    x25       c7                             225  c8                             503 
    x25       Obj                            813  c6                             714 
    x25       c5                             298  c4                             817 
    x25       c2                             551 
    x26       Obj                           1111  c5                             590 
    x26       c9                             735  c2                             299 
    x26       c0                             380  c3                             470 
    x26       c7                             963  c8                             775 
    x26       c4                             967  c1                             309 
    x26       c6                             639 
    x27       c5                             836  c0                             214 
    x27       c3                             579  Obj                            708 
    x27       c7                             878  c6                             308 
    x27       c1                             751  c8                             993 
    x27       c9                             509  c4                             586 
    x27       c2                             588 
    x28       c1                             760  c9                             718 
    x28       Obj                            560  c7                              13 
    x28       c6                             103  c2                             932 
    x28       c3                             672  c8                             487 
    x28       c0                             513  c4                             798 
    x28       c5                             398 
    x29       c8                              63  c9                             974 
    x29       c7                             247  c6                              81 
    x29       c0                              55  Obj                            538 
    x29       c4                             890  c3                             164 
    x29       c2                              46  c5                             582 
    x29       c1                             185 
    x30       c0                             842  c6                             371 
    x30       c3                             253  c7                             327 
    x30       c1                             189  Obj                            950 
    x30       c4                             775  c8                             457 
    x30       c9                              45  c5                             708 
    x30       c2                             852 
    x31       c7                             740  c4                             707 
    x31       c1                             850  c2                             428 
    x31       c0                             704  Obj                            728 
    x31       c6                             513  c8                             169 
    x31       c3                             666  c5                             970 
    x31       c9                             474 
    x32       c7                             317  c3                             272 
    x32       c4                             539  c6                             387 
    x32       c2                             349  c1                               3 
    x32       c5                             563  c9                              14 
    x32       c8                              91  c0                              75 
    x32       Obj                            370 
    x33       c2                             612  c0                             459 
    x33       c8                             147  c1                             517 
    x33       c3                              30  c9                             680 
    x33       Obj                            717  c4                             783 
    x33       c7                             907  c6                             433 
    x33       c5                              28 
    x34       c4                             735  c6                             682 
    x34       c9                             130  c0                             329 
    x34       c3                              59  c5                             764 
    x34       c7                             201  c2                             538 
    x34       Obj                            839  c1                             382 
    x34       c8                             468 
    x35       c4                             678  c5                             920 
    x35       c9                             282  c3                             705 
    x35       Obj                            936  c7                             832 
    x35       c8                              64  c2                              57 
    x35       c1                             773  c0                             810 
    x35       c6                             562 
    x36       c6                             986  c2                             869 
    x36       c1                             481  c9                              14 
    x36       c7                             154  c8                             194 
    x36       Obj                            518  c5                             708 
    x36       c4                              16  c3                             238 
    x36       c0                             151 
    x37       c4                             203  c9                             978 
    x37       c8                             876  c6                             247 
    x37       c2                             904  c1                             163 
    x37       Obj                            804  c5                             429 
    x37       c7                             424  c0                              51 
    x37       c3                             212 
    x38       c0                             332  Obj                            747 
    x38       c2                             688  c4                             476 
    x38       c1                             990  c6                             432 
    x38       c9                             341  c7                             340 
    x38       c8                             242  c5                             112 
    x38       c3                             534 
    x39       c8                             326  c6                             121 
    x39       Obj                            711  c0                             527 
    x39       c5                             540  c1                             959 
    x39       c7                             400  c2                              69 
    x39       c9                             444  c4                             244 
    x39       c3                             320 
    x40       c3                             438  c9                             809 
    x40       c7                             388  c1                             844 
    x40       c4                             273  c2                             327 
    x40       c6                             707  c0                             549 
    x40       c8                             306  c5                             838 
    x40       Obj                            965 
    x41       Obj                            672  c0                             679 
    x41       c8                             968  c7                             119 
    x41       c4                             612  c1                             246 
    x41       c6                             462  c5                             301 
    x41       c2                             700  c9                             559 
    x41       c3                              60 
    x42       c8                             834  c0                             426 
    x42       c9                              84  c5                             341 
    x42       c7                             239  Obj                            394 
    x42       c3                             341  c6                             613 
    x42       c2                             571  c1                             176 
    x42       c4                             306 
    x43       c1                             632  c8                              30 
    x43       c0                             853  c9                             868 
    x43       c6                             841  c3                             988 
    x43       c4                             497  Obj                            639 
    x43       c5                             556  c2                             758 
    x43       c7                              10 
    x44       c7                             438  Obj                            824 
    x44       c8                             354  c1                             941 
    x44       c2                             564  c0                             838 
    x44       c9                             691  c3                             913 
    x44       c6                              34  c4                             441 
    x44       c5                              85 
    x45       c5                             315  Obj                            688 
    x45       c1                             713  c2                              72 
    x45       c0                              41  c7                             675 
    x45       c4                             371  c9                              70 
    x45       c8                             110  c3                             684 
    x45       c6                             514 
    x46       c8                             846  c3                             294 
    x46       c6                             744  c5                             120 
    x46       c7                             598  c1                             957 
    x46       c2                             221  c9                             943 
    x46       c0                             602  c4                             152 
    x46       Obj                            723 
    x47       c3                             930  c1                             298 
    x47       c2                              17  c0                             585 
    x47       c4                             714  c6                             503 
    x47       c9                             899  c8                             724 
    x47       c5                             188  Obj                            877 
    x47       c7                             272 
    x48       c8                             877  Obj                            603 
    x48       c6                             361  c4                             465 
    x48       c2                             301  c9                             867 
    x48       c7                             885  c0                              57 
    x48       c5                             564  c3                              50 
    x48       c1                             283 
    x49       c5                             947  c7                             579 
    x49       c3                             706  c0                             418 
    x49       c1                              31  c8                             302 
    x49       c9                             409  c4                             440 
    x49       c2                             822  Obj                            982 
    x49       c6                             181 
    x50       c3                             585  c8                             566 
    x50       c9                             399  c4                             572 
    x50       c2                             526  c7                             218 
    x50       c5                             413  c6                             881 
    x50       Obj                            855  c0                             380 
    x50       c1                             942 
    x51       c6                             753  c8                             328 
    x51       c2                             382  c7                             243 
    x51       c4                             215  c1                             554 
    x51       c3                              66  c0                             524 
    x51       c9                             916  c5                             796 
    x51       Obj                            715 
    x52       c3                              95  c8                             176 
    x52       c5                             172  c2                             610 
    x52       c7                             692  c6                             507 
    x52       c1                             645  c4                             100 
    x52       c0                             939  c9                             461 
    x52       Obj                            806 
    x53       c5                              37  c2                             947 
    x53       c6                             316  c0                             209 
    x53       c7                             577  c1                              66 
    x53       c4                             627  c3                             229 
    x53       Obj                            636  c9                             216 
    x53       c8                             606 
    x54       c1                             329  c8                             942 
    x54       c3                             561  c6                              97 
    x54       c5                             652  c0                             127 
    x54       c9                             221  Obj                            746 
    x54       c7                             985  c4                             398 
    x54       c2                             393 
    x55       c5                             338  c4                             473 
    x55       c9                             146  Obj                            939 
    x55       c6                             409  c0                             415 
    x55       c7                             801  c1                              69 
    x55       c2                             909  c8                             239 
    x55       c3                             909 
    x56       Obj                            984  c4                             502 
    x56       c3                             448  c5                              12 
    x56       c8                             508  c0                             761 
    x56       c2                             294  c9                             668 
    x56       c1                             520  c7                             573 
    x56       c6                             658 
    x57       c6                             281  c5                             922 
    x57       c9                             980  c1                             444 
    x57       c8                             363  Obj                           1111 
    x57       c2                             474  c3                             778 
    x57       c7                             813  c4                             354 
    x57       c0                             928 
    x58       c8                             392  c9                             370 
    x58       c0                             143  c4                             222 
    x58       Obj                            746  c3                             652 
    x58       c2                             559  c1                             287 
    x58       c5                             178  c6                             626 
    x58       c7                             286 
    x59       c5                             261  c3                              15 
    x59       c7                             815  c6                             776 
    x59       c9                              10  c1                             130 
    x59       c4                             331  c2                             532 
    x59       c8                             101  c0                             488 
    x59       Obj                            598 
    x60       c6                             563  c1                             687 
    x60       c5                             364  c9                             202 
    x60       c8                             996  c0                             869 
    x60       c2                             104  c4                             880 
    x60       Obj                            659  c7                              64 
    x60       c3                             288 
    x61       c6                             135  c5                             428 
    x61       c2                             408  Obj                            538 
    x61       c9                             154  c8                             614 
    x61       c7                             232  c4                             854 
    x61       c3                              21  c1                             135 
    x61       c0                             870 
    x62       c2                             318  c6                             406 
    x62       c9                             362  c0                             778 
    x62       c5                             864  c8                              42 
    x62       c7                             119  c4                             117 
    x62       Obj                            721  c1                             686 
    x62       c3                             783 
    x63       Obj                            678  c4                             967 
    x63       c6                             483  c7                             228 
    x63       c2                             189  c8                             733 
    x63       c5                             685  c3                              10 
    x63       c9                             252  c0                             746 
    x63       c1                              20 
    x64       c2                             842  c7                             715 
    x64       c5                             642  c6                             255 
    x64       c9                             720  c8                             327 
    x64       c1                              22  c0                             738 
    x64       c3                              47  Obj                            975 
    x64       c4                             709 
    x65       c4                             972  c8                             170 
    x65       Obj                            731  c2                              23 
    x65       c3                             814  c6                              15 
    x65       c5                             300  c7                             609 
    x65       c1                              77  c9                             309 
    x65       c0                             572 
    x66       Obj                            688  c2                             407 
    x66       c6                             345  c9                             175 
    x66       c3                             834  c1                             340 
    x66       c5                             310  c7                             393 
    x66       c0                             943  c4                             420 
    x66       c8                             102 
    x67       c8                             892  c3                              56 
    x67       c7                              51  c5                             675 
    x67       c2                             401  c9                             768 
    x67       Obj                           1002  c1                             196 
    x67       c4                             703  c0                             590 
    x67       c6                             895 
    x68       c7                              69  Obj                            631 
    x68       c9                             836  c0                             376 
    x68       c1                             476  c2                             136 
    x68       c6                             305  c4                             690 
    x68       c5                             745  c8                             939 
    x68       c3                             196 
    x69       c7                             970  c3                             495 
    x69       c0                             129  c1                             510 
    x69       c4                             516  c8                             679 
    x69       c5                              72  c9                             378 
    x69       Obj                            483  c6                               5 
    x69       c2                              59 
    x70       c7                             683  c6                              53 
    x70       c3                             660  c5                             662 
    x70       c8                              51  c2                             282 
    x70       c9                             622  Obj                            710 
    x70       c4                             199  c0                             694 
    x70       c1                             582 
    x71       c4                             952  c8                             777 
    x71       c3                             679  c0                             755 
    x71       c1                             736  c7                             518 
    x71       c6                               3  Obj                            780 
    x71       c5                             445  c2                             648 
    x71       c9                             651 
    x72       c0                             877  c3                             114 
    x72       Obj                            939  c1                             227 
    x72       c8                             373  c7                             659 
    x72       c5                               5  c2                             864 
    x72       c6                             205  c4                             271 
    x72       c9                             965 
    x73       c7                             192  c2                             286 
    x73       Obj                            635  c9                             290 
    x73       c1                             861  c3                             775 
    x73       c5                             555  c8                              73 
    x73       c6                             130  c0                             571 
    x73       c4                             395 
    x74       c2                             602  c5                             384 
    x74       c7                             468  c6                             377 
    x74       c8                             478  c9                             572 
    x74       Obj                            699  c0                             141 
    x74       c3                             375  c4                               6 
    x74       c1                             907 
    x75       c6                             217  c7                             731 
    x75       c5                             990  c9                             479 
    x75       c8                             389  c2                             739 
    x75       Obj                            673  c4                             430 
    x75       c1                             453  c3                             466 
    x75       c0                             990 
    x76       Obj                           1025  c5                             279 
    x76       c7                             246  c4                             976 
    x76       c2                             939  c6                             215 
    x76       c0                             322  c8                             939 
    x76       c9                             496  c3                             177 
    x76       c1                             825 
    x77       c1                             266  c5                             162 
    x77       c8                             189  c2                             389 
    x77       Obj                            715  c4                             633 
    x77       c3                             448  c9                             722 
    x77       c7                             565  c0                             580 
    x77       c6                             256 
    x78       c3                             497  c4                               9 
    x78       c8                             424  Obj                            490 
    x78       c6                             217  c2                             568 
    x78       c0                             655  c7                             285 
    x78       c9                             615  c1                             836 
    x78       c5                              33 
    x79       c5                              54  c9                             179 
    x79       c4                             467  c1                             990 
    x79       c8                             739  c0                             778 
    x79       c2                             424  c3                             915 
    x79       c6                             140  Obj                            871 
    x79       c7                             800 
    x80       c7                             547  c2                             343 
    x80       c6                             687  Obj                            500 
    x80       c5                             400  c9                             176 
    x80       c8                             389  c3                              66 
    x80       c0                             801  c4                             978 
    x80       c1                             413 
    x81       c3                             328  c8                             952 
    x81       c6                             927  c4                             442 
    x81       c0                             289  c9                             810 
    x81       Obj                            674  c1                             453 
    x81       c5                             599  c7                             173 
    x81       c2                             327 
    x82       c2                             832  c1                             305 
    x82       c0                             908  c8                             671 
    x82       c9                             188  c6                             380 
    x82       c3                             584  c7                             655 
    x82       c5                             658  c4                             913 
    x82       Obj                            861 
    x83       Obj                            546  c3                             250 
    x83       c8                              14  c5                             878 
    x83       c4                             300  c1                             698 
    x83       c2                             403  c7                             413 
    x83       c6                             265  c0                             974 
    x83       c9                             543 
    x84       c2                             810  c5                             463 
    x84       c4                             390  c7                              88 
    x84       c6                             486  Obj                            700 
    x84       c9                             519  c0                             775 
    x84       c1                             488  c8                             591 
    x84       c3                             991 
    x85       c0                             849  c5                             328 
    x85       c3                             818  c6                             898 
    x85       c7                             586  c8                             223 
    x85       Obj                           1061  c9                             847 
    x85       c1                             527  c2                             584 
    x85       c4                             965 
    x86       c7                             835  Obj                            699 
    x86       c0                             610  c4                             575 
    x86       c1                             890  c3                             395 
    x86       c6                             328  c2                             494 
    x86       c8                             604  c9                             596 
    x86       c5                             977 
    x87       c0                             217  c7                             333 
    x87       c6                             366  Obj                            857 
    x87       c2                             820  c9                             254 
    x87       c5                             146  c1                             911 
    x87       c4                             713  c3                             740 
    x87       c8                             468 
    x88       c2                             382  c1                             737 
    x88       c4                             719  c6                             321 
    x88       c5                             675  Obj                            915 
    x88       c3                             888  c8                             656 
    x88       c9                             935  c0                             869 
    x88       c7                             175 
    x89       c1                             825  c9                             352 
    x89       c2                             305  c7                             696 
    x89       c0                             250  c8                             167 
    x89       Obj                            913  c5                             572 
    x89       c6                             161  c4                             638 
    x89       c3                             417 
    x90       c7                             204  c3                              89 
    x90       Obj                            633  c6                              85 
    x90       c0                             431  c8                             167 
    x90       c1                             385  c2                             502 
    x90       c4                             710  c9                             326 
    x90       c5                             770 
    x91       c5                              53  c6                              91 
    x91       c0                             126  c4                             474 
    x91       c7                             189  c2                             365 
    x91       c9                             457  c8                             622 
    x91       Obj                            599  c1                             176 
    x91       c3                             700 
    x92       c0                             526  c4                             187 
    x92       c1                             751  c9                             654 
    x92       c8                             287  c6                             560 
    x92       c3                             599  c5                             423 
    x92       Obj                            921  c2                             983 
    x92       c7                             964 
    x93       c0                             795  c8                             914 
    x93       Obj                            640  c9                             171 
    x93       c4                             955  c1                              17 
    x93       c5                             915  c3                             898 
    x93       c6                             708  c7                             352 
    x93       c2                              37 
    x94       c0                             171  c9                              98 
    x94       Obj                            532  c4                             575 
    x94       c8                             604  c1                             371 
    x94       c6                             667  c7                             508 
    x94       c3                             786  c5                             580 
    x94       c2                             510 
    x95       Obj                            805  c1                             375 
    x95       c3                             330  c9                             792 
    x95       c4                             986  c0                             983 
    x95       c6                             426  c5                             214 
    x95       c8                             500  c2                              23 
    x95       c7                             529 
    x96       c8                             890  c3                             550 
    x96       c9                             445  c5                              65 
    x96       c4                              35  c0                             769 
    x96       c6                              13  c7                             351 
    x96       c2                             390  Obj                            861 
    x96       c1                             219 
    x97       c1                             456  c3                              55 
    x97       c4                             721  c9                             646 
    x97       c6                             284  c7                             645 
    x97       c0                             304  Obj                            907 
    x97       c2                             316  c8                              22 
    x97       c5                             755 
    x98       c6                             653  Obj                            776 
    x98       c2                             597  c9                             131 
    x98       c5                             867  c0                             784 
    x98       c7                             672  c4                             824 
    x98       c8                             363  c1                             952 
    x98       c3                             831 
    x99       c3                             110  c4                             142 
    x99       c5                              28  c2                             466 
    x99       c8                             290  Obj                            620 
    x99       c0                             715  c7                              49 
    x99       c6                             607  c1                             995 
    x99       c9                             223 
    INTEND    'MARKER'                            'INTEND'                           
RHS
    RHS       c0                           25628  c1                           25721 
    RHS       c2                           24340  c3                           23839 
    RHS       c4                           27127  c5                           24240 
    RHS       c6                           21660  c7                           22959 
    RHS       c8                           23733  c9                           24212 
BOUNDS
 BV Bound     x0                                 
 BV Bound     x1                                 
 BV Bound     x2                                 
 BV Bound     x3                                 
 BV Bound     x4                                 
 BV Bound     x5                                 
 BV Bound     x6                                 
 BV Bound     x7                                 
 BV Bound     x8                                 
 BV Bound     x9                                 
 BV Bound     x10                                
 BV Bound     x11                                
 BV Bound     x12                                
 BV Bound     x13                                
 BV Bound     x14                                
 BV Bound     x15                                
 BV Bound     x16                                
 BV Bound     x17                                
 BV Bound     x18                                
 BV Bound     x19                                
 BV Bound     x20                                
 BV Bound     x21                                
 BV Bound     x22                                
 BV Bound     x23                                
 BV Bound     x24                                
 BV Bound     x25                                
 BV Bound     x26                                
 BV Bound     x27                                
 BV Bound     x28                                
 BV Bound     x29                                
 BV Bound     x30                                
 BV Bound     x31                                
 BV Bound     x32                                
 BV Bound     x33                                
 BV Bound     x34                                
 BV Bound     x35                                
 BV Bound     x36                                
 BV Bound     x37                                
 BV Bound     x38                                
 BV Bound     x39                                
 BV Bound     x40                                
 BV Bound     x41                                
 BV Bound     x42                                
 BV Bound     x43                                
 BV Bound     x44                                
 BV Bound     x45                                
 BV Bound     x46                                
 BV Bound     x47                                
 BV Bound     x48                                
 BV Bound     x49                                
 BV Bound     x50                                
 BV Bound     x51                                
 BV Bound     x52                                
 BV Bound     x53                                
 BV Bound     x54                                
 BV Bound     x55                                
 BV Bound     x56                                
 BV Bound     x57                                
 BV Bound     x58                                
 BV Bound     x59                                
 BV Bound     x60                                
 BV Bound     x61                                
 BV Bound     x62                                
 BV Bound     x63                                
 BV Bound     x64                                
 BV Bound     x65                                
 BV Bound     x66                                
 BV Bound     x67                                
 BV Bound     x68                                
 BV Bound     x69                                
 BV Bound     x70                                
 BV Bound     x71                                
 BV Bound     x72                                
 BV Bound     x73                                
 BV Bound     x74                                
 BV Bound     x75                                
 BV Bound     x76                                
 BV Bound     x77                                
 BV Bound     x78                                
 BV Bound     x79                                
 BV Bound     x80                                
 BV Bound     x81                                
 BV Bound     x82                                
 BV Bound     x83                                
 BV Bound     x84                                
 BV Bound     x85                                
 BV Bound     x86                                
 BV Bound     x87                                
 BV Bound     x88                                
 BV Bound     x89                                
 BV Bound     x90                                
 BV Bound     x91                                
 BV Bound     x92                                
 BV Bound     x93                                
 BV Bound     x94                                
 BV Bound     x95                                
 BV Bound     x96                                
 BV Bound     x97                                
 BV Bound     x98                                
 BV Bound     x99                                
ENDATA