* SCIP STATISTICS
*   Problem name     : mknap_5
*   Variables        : 100 (100 binary, 0 integer, 0 implicit integer, 0 continuous)
*   Constraints      : 10
NAME          mknap_5
OBJSENSE
  MAX
ROWS
 N  Obj 
 L  c0 
 L  c1 
 L  c2 
 L  c3 
 L  c4 
 L  c5 
 L  c6 
 L  c7 
 L  c8 
 L  c9 
COLUMNS
    INTSTART  'MARKER'                            'INTORG'                           
    x0        Obj                            734  c5                             955 
    x0        c4                             438  c6                             544 
    x0        c3                             187  c7                             208 
    x0        c2                              93  c8                             678 
    x0        c1                             716  c9                             418 
    x0        c0                             784 
    x1        Obj                           1021  c5                              68 
    x1        c4                             348  c6                             574 
    x1        c3                             979  c7                             288 
    x1        c2                             860  c8                             708 
    x1        c1                             816  c9                             336 
    x1        c0                             789 
    x2        c9                             138  c5                              40 
    x2        Obj                            476  c3                             675 
    x2        c1                             854  c4                             799 
    x2        c0                             218  c8                             190 
    x2        c7                              56  c2                             551 
    x2        c6                             998 
    x3        c9                             361  c8                             489 
    x3        c2                             994  c1                             631 
    x3        c6                             166  c7                             746 
    x3        c3                             467  Obj                            707 
    x3        c4                             704  c0                             320 
    x3        c5                             705 
    x4        c4                              65  c3                             422 
    x4        c0                             117  c6                             572 
    x4        Obj                            603  c1                             708 
    x4        c7                             134  c2                             299 
    x4        c5                             696  c8                             972 
    x4        c9                             950 
    x5        c8                             434  c3                             827 
    x5        c1                              23  c5                             810 
    x5        c6                             305  c7                             431 
    x5        Obj                            919  c4                             622 
    x5        c0                             224  c9                             359 
    x5        c2                             583 
    x6        Obj                            741  c3                             700 
    x6        c8                             114  c4                             567 
    x6        c0                             410  c7                             868 
    x6        c5                             806  c9                             885 
    x6        c1                             165  c2                             591 
    x6        c6                             966 
    x7        c9                             239  c5                             580 
    x7        c1                             293  c7                              19 
    x7        c2                             979  c4                              84 
    x7        Obj                            757  c8                              26 
    x7        c0                             738  c3                             310 
    x7        c6                              85 
    x8        c5                              77  c7                              56 
    x8        c2                             809  c4                             754 
    x8        c1                             490  c6                              85 
    x8        c0                             248  c8                             866 
    x8        Obj                            846  c3                             317 
    x8        c9                             261 
    x9        c9                             273  c4                             577 
    x9        c8                              72  c6                             818 
    x9        c0                             482  Obj                            833 
    x9        c1                             457  c3                             876 
    x9        c7                             837  c5                             949 
    x9        c2                             287 
    x10       c9                             611  c3                             820 
    x10       Obj                            708  c4                             942 
    x10       c8                             825  c6                             929 
    x10       c0                             159  c5                             887 
    x10       c7                             499  c2                             411 
    x10       c1                             450 
    x11       c1                             458  c8                             621 
    x11       c0                             545  c9                             551 
    x11       c2                             410  c7                             629 
    x11       c3                             956  c6                             896 
    x11       c4                             661  c5                             516 
    x11       Obj                           1052 
    x12       Obj                            853  c5                             675 
    x12       c3                             724  c1                             814 
    x12       c7                             500  c9                             759 
    x12       c8                              12  c0                             817 
    x12       c6                             118  c2                             959 
    x12       c4                             897 
    x13       c5                             445  c8                             994 
    x13       c3                             923  c7                              32 
    x13       c9                              28  c0                             745 
    x13       c1                              56  c6                             408 
    x13       c2                             102  c4                             267 
    x13       Obj                            766 
    x14       Obj                            993  c4                             427 
    x14       c5                             403  c6                             701 
    x14       c7                             314  c1                             284 
    x14       c2                             717  c0                             525 
    x14       c3                             846  c9                             650 
    x14       c8                             703 
    x15       c9                             420  c1                             237 
    x15       c2                             202  c7                             771 
    x15       c6                             545  c8                             962 
    x15       Obj                            819  c3                             851 
    x15       c0                             937  c5                             504 
    x15       c4                             182 
    x16       c3                             512  Obj                            506 
    x16       c5                             606  c9                             800 
    x16       c1                               7  c4                             432 
    x16       c7                             891  c6                              90 
    x16       c0                             110  c8                             270 
    x16       c2                             838 
    x17       c7                             777  c3                             474 
    x17       c9                             912  Obj                            881 
    x17       c4                             674  c2                             447 
    x17       c1                             276  c5                             178 
    x17       c6                             935  c0                             246 
    x17       c8                             406 
    x18       c8                             230  c1                             292 
    x18       c5                             240  c6                              46 
    x18       c0                             168  c3                             610 
    x18       c9                             839  Obj                            593 
    x18       c7                             234  c2                             919 
    x18       c4                             356 
    x19       Obj                            471  c5                             894 
    x19       c8                             828  c0                             150 
    x19       c9                             188  c2                             646 
    x19       c6                             490  c3                             132 
    x19       c4                             353  c7                             317 
    x19       c1                             213 
    x20       c1                              18  c7                             664 
    x20       c3                             411  c4                             111 
    x20       Obj                            720  c9                             588 
    x20       c8                             523  c0                             316 
    x20       c5                             333  c2                             476 
    x20       c6                             801 
    x21       c9                             795  c1                             767 
    x21       c2                             724  c4                             581 
    x21       Obj                            913  c5                             796 
    x21       c0                             774  c6                             678 
    x21       c3                             184  c8                             409 
    x21       c7                             333 
    x22       c8                             258  Obj                            576 
    x22       c0                             455  c1                             823 
    x22       c9                             184  c2                              36 
    x22       c5                             519  c7                             732 
    x22       c4                             285  c3                             275 
    x22       c6                             980 
    x23       c8                             360  c6                             752 
    x23       c0                              54  Obj                            701 
    x23       c9                             592  c1                             437 
    x23       c2                             925  c5                             936 
    x23       c7                             643  c4                             701 
    x23       c3                              86 
    x24       c3                             762  c0                             334 
    x24       c6                             773  c9                             500 
    x24       Obj                            553  c1                             875 
    x24       c7                             492  c2                             285 
    x24       c4                              76  c5                             183 
    x24       c8                             189 
    x25       c9                             890  c0                             513 
    x25       c3                             983  c1                             263 
    x25       c7                              14  c8                             639 
    x25       Obj                            900  c6                             985 
    x25       c5                             689  c4                             881 
    x25       c2                             135 
    x26       Obj                            811  c5                              61 
    x26       c9                             629  c2                             520 
    x26       c0                              24  c3                             882 
    x26       c7                             962  c8                             487 
    x26       c4                             956  c1                             490 
    x26       c6                             661 
    x27       c5                             913  c0                             209 
    x27       c3                              38  Obj                            821 
    x27       c7                             536  c6                              17 
    x27       c1                             329  c8                             441 
    x27       c9                             570  c4                             864 
    x27       c2                             396 
    x28       c1                             718  c9                             443 
    x28       Obj                            791  c7                             934 
    x28       c6                             106  c2                             222 
    x28       c3                             160  c8                             795 
    x28       c0                             174  c4                             317 
    x28       c5                             420 
    x29       c8                              53  c9                             902 
    x29       c7                             367  c6                             319 
    x29       c0                             348  Obj                            752 
    x29       c4                             970  c3                             772 
    x29       c2                             154  c5                             858 
    x29       c1                             775 
    x30       c0                             866  c6                             368 
    x30       c3                             613  c7                             358 
    x30       c1                             108  Obj                            692 
    x30       c4                             478  c8                             323 
    x30       c9                             837  c5                              15 
    x30       c2                             425 
    x31       c7                              15  c4                             123 
    x31       c1                             109  c2                             183 
    x31       c0                             857  Obj                            495 
    x31       c6                             494  c8                             458 
    x31       c3                             919  c5                             157 
    x31       c9                             492 
    x32       c7                              45  c3                              18 
    x32       c4                             814  c6                             361 
    x32       c2                             577  c1                             764 
    x32       c5                             606  c9                             839 
    x32       c8                             405  c0                              62 
    x32       Obj                            613 
    x33       c2                             839  c0                             367 
    x33       c8                             239  c1                              28 
    x33       c3                              81  c9                             786 
    x33       Obj                            929  c4                            1000 
    x33       c7                             761  c6                             209 
    x33       c5                             852 
    x34       c4                             988  c6                             382 
    x34       c9                             602  c0                             621 
    x34       c3                             645  c5                             539 
    x34       c7                             724  c2                             707 
    x34       Obj                            971  c1                             489 
    x34       c8                             235 
    x35       c4                             399  c5                             682 
    x35       c9                             365  c3                             979 
    x35       Obj                           1082  c7                             726 
    x35       c8                             347  c2                             808 
    x35       c1                             858  c0                             641 
    x35       c6                             785 
    x36       c6                             795  c2                             711 
    x36       c1                             543  c9                             872 
    x36       c7                             318  c8                             241 
    x36       Obj                            809  c5                             460 
    x36       c4                             768  c3                             154 
    x36       c0                             268 
    x37       c4                               5  c9                             558 
    x37       c8                             432  c6                             184 
    x37       c2                             982  c1                            1000 
    x37       Obj                            972  c5                             719 
    x37       c7                             392  c0                             710 
    x37       c3                             938 
    x38       c0                             530  Obj                           1015 
    x38       c2                             324  c4                             883 
    x38       c1                             788  c6                             465 
    x38       c9                             107  c7                             647 
    x38       c8                             566  c5                             870 
    x38       c3                             643 
    x39       c8                             968  c6                             526 
    x39       Obj                            870  c0                             295 
    x39       c5                             119  c1                             592 
    x39       c7                             269  c2                             291 
    x39       c9                             466  c4                             291 
    x39       c3                             672 
    x40       c3                             208  c9                             890 
    x40       c7                             420  c1                             124 
    x40       c4                             375  c2                             329 
    x40       c6                             462  c0                             961 
    x40       c8                             611  c5                             821 
    x40       Obj                            784 
    x41       Obj                            424  c0                             192 
    x41       c8                             404  c7                             557 
    x41       c4                             463  c1                             337 
    x41       c6                             995  c5                             192 
    x41       c2                              58  c9                             645 
    x41       c3                             106 
    x42       c8                             916  c0                             834 
    x42       c9                             198  c5                              57 
    x42       c7                             460  Obj                            886 
    x42       c3                             456  c6                               9 
    x42       c2                             932  c1                             922 
    x42       c4                             862 
    x43       c1                              75  c8                             413 
    x43       c0                             697  c9                             686 
    x43       c6                             233  c3                             489 
    x43       c4                             746  Obj                            785 
    x43       c5                             753  c2                             263 
    x43       c7                             821 
    x44       c7                             259  Obj                            714 
    x44       c8                             654  c1                             915 
    x44       c2                             613  c0                              57 
    x44       c9                              58  c3                             244 
    x44       c6                             497  c4                             274 
    x44       c5                             804 
    x45       c5                             159  Obj                            761 
    x45       c1                             222  c2                             418 
    x45       c0                             441  c7                             938 
    x45       c4                             754  c9                             183 
    x45       c8                             703  c3                             795 
    x45       c6                             946 
    x46       c8                             564  c3                             430 
    x46       c6                             475  c5                             986 
    x46       c7                             672  c1                             911 
    x46       c2                             730  c9                             866 
    x46       c0                             496  c4                             428 
    x46       Obj                            881 
    x47       c3                             682  c1                             285 
    x47       c2                             957  c0                             858 
    x47       c4                             975  c6                              27 
    x47       c9                             561  c8                             593 
    x47       c5                             504  Obj                            736 
    x47       c7                             352 
    x48       c8                             509  Obj                            875 
    x48       c6                             415  c4                               1 
    x48       c2                             889  c9                             322 
    x48       c7                             130  c0                             944 
    x48       c5                             432  c3                             844 
    x48       c1                             976 
    x49       c5                             320  c7                             167 
    x49       c3                             775  c0                             384 
    x49       c1                             839  c8                             932 
    x49       c9                             254  c4                              83 
    x49       c2                             617  Obj                            571 
    x49       c6                             462 
    x50       c3                             850  c8                             704 
    x50       c9                             437  c4                              41 
    x50       c2                             678  c7                             714 
    x50       c5                             683  c6                             241 
    x50       Obj                            612  c0                             829 
    x50       c1                             754 
    x51       c6                             196  c8                             565 
    x51       c2                             606  c7                             532 
    x51       c4                             473  c1                              46 
    x51       c3                             577  c0                             513 
    x51       c9                             890  c5                             203 
    x51       Obj                            521 
    x52       c3                             701  c8                            1000 
    x52       c5                             601  c2                              56 
    x52       c7                             660  c6                             894 
    x52       c1                              55  c4                             257 
    x52       c0                             665  c9                             596 
    x52       Obj                            912 
    x53       c5                             297  c2                              93 
    x53       c6                             549  c0                             432 
    x53       c7                             279  c1                             386 
    x53       c4                             101  c3                             985 
    x53       Obj                            925  c9                             560 
    x53       c8                             653 
    x54       c1                             439  c8                             785 
    x54       c3                             902  c6                             903 
    x54       c5                             285  c0                             990 
    x54       c9                             419  Obj                            582 
    x54       c7                             208  c4                             501 
    x54       c2                              11 
    x55       c5                             288  c4                             940 
    x55       c9                             212  Obj                            945 
    x55       c6                             207  c0                             621 
    x55       c7                             183  c1                             790 
    x55       c2                             310  c8                             611 
    x55       c3                             660 
    x56       Obj                            526  c4                              23 
    x56       c3                              75  c5                             898 
    x56       c8                             352  c0                             709 
    x56       c2                             168  c9                              25 
    x56       c1                             513  c7                             653 
    x56       c6                             700 
    x57       c6                             238  c5                             529 
    x57       c9                             777  c1                             717 
    x57       c8                             822  Obj                            876 
    x57       c2                             631  c3                             578 
    x57       c7                              17  c4                             780 
    x57       c0                             342 
    x58       c8                             330  c9                             505 
    x58       c0                              40  c4                             430 
    x58       Obj                            856  c3                             527 
    x58       c2                             257  c1                             943 
    x58       c5                             571  c6                             282 
    x58       c7                             859 
    x59       c5                             457  c3                             502 
    x59       c7                              82  c6                             448 
    x59       c9                             834  c1                             510 
    x59       c4                             724  c2                             642 
    x59       c8                             559  c0                             330 
    x59       Obj                            646 
    x60       c6                             655  c1                             193 
    x60       c5                             280  c9                             167 
    x60       c8                             713  c0                             885 
    x60       c2                              63  c4                             629 
    x60       Obj                            875  c7                             732 
    x60       c3                             881 
    x61       c6                             857  c5                             611 
    x61       c2                             207  Obj                            787 
    x61       c9                             198  c8                             560 
    x61       c7                             664  c4                             954 
    x61       c3                             565  c1                             343 
    x61       c0                             751 
    x62       c2                             475  c6                              89 
    x62       c9                             308  c0                              95 
    x62       c5                             327  c8                             486 
    x62       c7                             705  c4                             503 
    x62       Obj                            786  c1                             826 
    x62       c3                             100 
    x63       Obj                            839  c4                             402 
    x63       c6                             574  c7                              93 
    x63       c2                             202  c8                             582 
    x63       c5                             447  c3                             801 
    x63       c9                             978  c0                             650 
    x63       c1                             890 
    x64       c2                             528  c7                             805 
    x64       c5                             686  c6                             169 
    x64       c9                             380  c8                              10 
    x64       c1                             469  c0                             953 
    x64       c3                             416  Obj                            994 
    x64       c4                             734 
    x65       c4                             748  c8                             414 
    x65       Obj                            575  c2                             861 
    x65       c3                              74  c6                             156 
    x65       c5                             389  c7                             297 
    x65       c1                             380  c9                             161 
    x65       c0                             687 
    x66       Obj                            588  c2                             445 
    x66       c6                             529  c9                             317 
    x66       c3                             129  c1                             936 
    x66       c5                             325  c7                             750 
    x66       c0                             361  c4                             238 
    x66       c8                             728 
    x67       c8                             793  c3                             907 
    x67       c7                             918  c5                             568 
    x67       c2                             335  c9                             570 
    x67       Obj                            610  c1                              23 
    x67       c4                             165  c0                             933 
    x67       c6                             473 
    x68       c7                              59  Obj                            499 
    x68       c9                             813  c0                             612 
    x68       c1                             772  c2                             354 
    x68       c6                              52  c4                              35 
    x68       c5                             710  c8                             597 
    x68       c3                             855 
    x69       c7                             368  c3                             555 
    x69       c0                             889  c1                             124 
    x69       c4                             228  c8                             977 
    x69       c5                             387  c9                              56 
    x69       Obj                            474  c6                             613 
    x69       c2                              71 
    x70       c7                             482  c6                             482 
    x70       c3                             942  c5                             977 
    x70       c8                             894  c2                             299 
    x70       c9                             953  Obj                           1017 
    x70       c4                             758  c0                             150 
    x70       c1                             650 
    x71       c4                             751  c8                             432 
    x71       c3                             873  c0                             694 
    x71       c1                              37  c7                             273 
    x71       c6                             490  Obj                            652 
    x71       c5                             408  c2                             739 
    x71       c9                             270 
    x72       c0                             109  c3                             526 
    x72       Obj                            927  c1                             452 
    x72       c8                             391  c7                              32 
    x72       c5                             976  c2                             891 
    x72       c6                             419  c4                             396 
    x72       c9                             605 
    x73       c7                              41  c2                             414 
    x73       Obj                            782  c9                             956 
    x73       c1                             299  c3                             392 
    x73       c5                             530  c8                             804 
    x73       c6                             226  c0                             130 
    x73       c4                             533 
    x74       c2                              98  c5                             512 
    x74       c7                             993  c6                             675 
    x74       c8                             525  c9                              73 
    x74       Obj                            955  c0                             860 
    x74       c3                             532  c4                             329 
    x74       c1                             668 
    x75       c6                             509  c7                             719 
    x75       c5                             689  c9                              92 
    x75       c8                             494  c2                             275 
    x75       Obj                            519  c4                             277 
    x75       c1                             715  c3                             324 
    x75       c0                             211 
    x76       Obj                            840  c5                             954 
    x76       c7                             949  c4                             934 
    x76       c2                             591  c6                             317 
    x76       c0                             950  c8                             702 
    x76       c9                             886  c3                             955 
    x76       c1                               9 
    x77       c1                             566  c5                             477 
    x77       c8                             175  c2                             831 
    x77       Obj                            636  c4                             473 
    x77       c3                             250  c9                             642 
    x77       c7                             423  c0                             972 
    x77       c6                             826 
    x78       c3                             289  c4                             250 
    x78       c8                             523  Obj                            930 
    x78       c6                             589  c2                             831 
    x78       c0                             612  c7                             901 
    x78       c9                             183  c1                             159 
    x78       c5                             905 
    x79       c5                             178  c9                             286 
    x79       c4                             115  c1                             132 
    x79       c8                             664  c0                             858 
    x79       c2                             926  c3                             509 
    x79       c6                             103  Obj                            892 
    x79       c7                             486 
    x80       c7                             824  c2                              35 
    x80       c6                             680  Obj                            784 
    x80       c5                             619  c9                             384 
    x80       c8                             854  c3                             361 
    x80       c0                             834  c4                             680 
    x80       c1                             429 
    x81       c3                             337  c8                              20 
    x81       c6                             289  c4                             858 
    x81       c0                             499  c9                             364 
    x81       Obj                            717  c1                             130 
    x81       c5                             273  c7                             735 
    x81       c2                             514 
    x82       c2                             361  c1                             559 
    x82       c0                             542  c8                             495 
    x82       c9                              83  c6                             346 
    x82       c3                              55  c7                             100 
    x82       c5                               2  c4                             270 
    x82       Obj                            410 
    x83       Obj                            913  c3                             881 
    x83       c8                             805  c5                             161 
    x83       c4                             787  c1                             709 
    x83       c2                             362  c7                             827 
    x83       c6                              39  c0                             795 
    x83       c9                             229 
    x84       c2                             991  c5                             232 
    x84       c4                             483  c7                             448 
    x84       c6                             289  Obj                            739 
    x84       c9                             508  c0                             386 
    x84       c1                             507  c8                             802 
    x84       c3                             532 
    x85       c0                             578  c5                             562 
    x85       c3                             423  c6                             374 
    x85       c7                              18  c8                             730 
    x85       Obj                            994  c9                             621 
    x85       c1                             853  c2                             348 
    x85       c4                             961 
    x86       c7                             905  Obj                            541 
    x86       c0                             197  c4                             505 
    x86       c1                             545  c3                             665 
    x86       c6                             148  c2                             632 
    x86       c8                              88  c9                              64 
    x86       c5                             690 
    x87       c0                             266  c7                             930 
    x87       c6                             478  Obj                            679 
    x87       c2                             771  c9                             229 
    x87       c5                             608  c1                             523 
    x87       c4                             748  c3                             501 
    x87       c8                             629 
    x88       c2                             439  c1                             169 
    x88       c4                             636  c6                             222 
    x88       c5                             490  Obj                            721 
    x88       c3                             453  c8                             290 
    x88       c9                              96  c0                             932 
    x88       c7                             650 
    x89       c1                             969  c9                             190 
    x89       c2                              13  c7                             509 
    x89       c0                             811  c8                             317 
    x89       Obj                            945  c5                             690 
    x89       c6                             725  c4                             882 
    x89       c3                             633 
    x90       c7                             331  c3                             944 
    x90       Obj                            923  c6                             717 
    x90       c0                             106  c8                             928 
    x90       c1                             563  c2                             482 
    x90       c4                             495  c9                             979 
    x90       c5                             123 
    x91       c5                             256  c6                             574 
    x91       c0                             969  c4                             706 
    x91       c7                             458  c2                              10 
    x91       c9                             661  c8                             937 
    x91       Obj                            798  c1                             615 
    x91       c3                             161 
    x92       c0                               7  c4                             427 
    x92       c1                              16  c9                              24 
    x92       c8                             465  c6                              47 
    x92       c3                             453  c5                             950 
    x92       Obj                            710  c2                             448 
    x92       c7                             129 
    x93       c0                              64  c8                              10 
    x93       Obj                            846  c9                             411 
    x93       c4                             221  c1                             484 
    x93       c5                             781  c3                             977 
    x93       c6                             899  c7                              32 
    x93       c2                             969 
    x94       c0                              82  c9                             940 
    x94       Obj                            664  c4                             361 
    x94       c8                             471  c1                              73 
    x94       c6                             490  c7                              71 
    x94       c3                              48  c5                             267 
    x94       c2                             585 
    x95       Obj                            842  c1                             434 
    x95       c3                             204  c9                             515 
    x95       c4                             546  c0                             152 
    x95       c6                             716  c5                             704 
    x95       c8                             702  c2                             439 
    x95       c7                             385 
    x96       c8                             796  c3                             867 
    x96       c9                              89  c5                             650 
    x96       c4                             560  c0                             801 
    x96       c6                             976  c7                             183 
    x96       c2                             395  Obj                            954 
    x96       c1                             693 
    x97       c1                             281  c3                             205 
    x97       c4                             842  c9                              77 
    x97       c6                             142  c7                              16 
    x97       c0                              12  Obj                            492 
    x97       c2                             127  c8                             627 
    x97       c5                             574 
    x98       c6                             878  Obj                            813 
    x98       c2                             206  c9                             348 
    x98       c5                             735  c0                             590 
    x98       c7                             430  c4                              84 
    x98       c8                             894  c1                              35 
    x98       c3                             847 
    x99       c3                             171  c4                             185 
    x99       c5                             148  c2                             103 
    x99       c8                             209  Obj                            346 
    x99       c0                             948  c7                             170 
    x99       c6                             341  c1                             598 
    x99       c9                             538 
    INTEND    'MARKER'                            'INTEND'                           
RHS
    RHS       c0                           12605  c1                           11900 
    RHS       c2                           12085  c3                           13701 
    RHS       c4                           12890  c5                           13113 
    RHS       c6                           12066  c7                           11586 
    RHS       c8                           13495  c9                           12039 
BOUNDS
 BV Bound     x0                                 
 BV Bound     x1                                 
 BV Bound     x2                                 
 BV Bound     x3                                 
 BV Bound     x4                                 
 BV Bound     x5                                 
 BV Bound     x6                                 
 BV Bound     x7                                 
 BV Bound     x8                                 
 BV Bound     x9                                 
 BV Bound     x10                                
 BV Bound     x11                                
 BV Bound     x12                                
 BV Bound     x13                                
 BV Bound     x14                                
 BV Bound     x15                                
 BV Bound     x16                                
 BV Bound     x17                                
 BV Bound     x18                                
 BV Bound     x19                                
 BV Bound     x20                                
 BV Bound     x21                                
 BV Bound     x22                                
 BV Bound     x23                                
 BV Bound     x24                                
 BV Bound     x25                                
 BV Bound     x26                                
 BV Bound     x27                                
 BV Bound     x28                                
 BV Bound     x29                                
 BV Bound     x30                                
 BV Bound     x31                                
 BV Bound     x32                                
 BV Bound     x33                                
 BV Bound     x34                                
 BV Bound     x35                                
 BV Bound     x36                                
 BV Bound     x37                                
 BV Bound     x38                                
 BV Bound     x39                                
 BV Bound     x40                                
 BV Bound     x41                                
 BV Bound     x42                                
 BV Bound     x43                                
 BV Bound     x44                                
 BV Bound     x45                                
 BV Bound     x46                                
 BV Bound     x47                                
 BV Bound     x48                                
 BV Bound     x49                                
 BV Bound     x50                                
 BV Bound     x51                                
 BV Bound     x52                                
 BV Bound     x53                                
 BV Bound     x54                                
 BV Bound     x55                                
 BV Bound     x56                                
 BV Bound     x57                                
 BV Bound     x58                                
 BV Bound     x59                                
 BV Bound     x60                                
 BV Bound     x61                                
 BV Bound     x62                                
 BV Bound     x63                                
 BV Bound     x64                                
 BV Bound     x65                                
 BV Bound     x66                                
 BV Bound     x67                                
 BV Bound     x68                                
 BV Bound     x69                                
 BV Bound     x70                                
 BV Bound     x71                                
 BV Bound     x72                                
 BV Bound     x73                                
 BV Bound     x74                                
 BV Bound     x75                                
 BV Bound     x76                                
 BV Bound     x77                                
 BV Bound     x78                                
 BV Bound     x79                                
 BV Bound     x80                                
 BV Bound     x81                                
 BV Bound     x82                                
 BV Bound     x83                                
 BV Bound     x84                                
 BV Bound     x85                                
 BV Bound     x86                                
 BV Bound     x87                                
 BV Bound     x88                                
 BV Bound     x89                                
 BV Bound     x90                                
 BV Bound     x91                                
 BV Bound     x92                                
 BV Bound     x93                                
 BV Bound     x94                                
 BV Bound     x95                                
 BV Bound     x96                                
 BV Bound     x97                                
 BV Bound     x98                                
 BV Bound     x99                                
ENDATA