* SCIP STATISTICS
*   Problem name     : mknap_21
*   Variables        : 100 (100 binary, 0 integer, 0 implicit integer, 0 continuous)
*   Constraints      : 10
NAME          mknap_21
OBJSENSE
  MAX
ROWS
 N  Obj 
 L  c0 
 L  c1 
 L  c2 
 L  c3 
 L  c4 
 L  c5 
 L  c6 
 L  c7 
 L  c8 
 L  c9 
COLUMNS
    INTSTART  'MARKER'                            'INTORG'                           
    x0        Obj                            887  c5                             221 
    x0        c4                             715  c6                             571 
    x0        c3                             867  c7                             389 
    x0        c2                             213  c8                              25 
    x0        c1                             539  c9                             619 
    x0        c0                             387 
    x1        Obj                            499  c5                             489 
    x1        c4                             457  c6                              11 
    x1        c3                             210  c7                             615 
    x1        c2                             317  c8                             766 
    x1        c1                              15  c9                             382 
    x1        c0                             969 
    x2        c9                             175  c5                             472 
    x2        Obj                            417  c3                             509 
    x2        c1                             100  c4                             258 
    x2        c0                             277  c8                             238 
    x2        c7                             558  c2                             214 
    x2        c6                             247 
    x3        c9                             282  c8                             306 
    x3        c2                             185  c1                             296 
    x3        c6                             517  c7                             218 
    x3        c3                             806  Obj                            729 
    x3        c4                             441  c0                             755 
    x3        c5                             412 
    x4        c4                             358  c3                             540 
    x4        c0                             230  c6                             920 
    x4        Obj                            644  c1                             401 
    x4        c7                             490  c2                             130 
    x4        c5                             473  c8                             456 
    x4        c9                             750 
    x5        c8                              87  c3                             580 
    x5        c1                             329  c5                             911 
    x5        c6                             435  c7                             492 
    x5        Obj                            900  c4                             793 
    x5        c0                             405  c9                              19 
    x5        c2                             169 
    x6        Obj                            881  c3                             449 
    x6        c8                             474  c4                             450 
    x6        c0                             852  c7                               6 
    x6        c5                             173  c9                             122 
    x6        c1                             953  c2                             153 
    x6        c6                             547 
    x7        c9                             134  c5                             479 
    x7        c1                             801  c7                             750 
    x7        c2                             205  c4                             570 
    x7        Obj                            765  c8                             518 
    x7        c0                             653  c3                              95 
    x7        c6                             276 
    x8        c5                             103  c7                             367 
    x8        c2                             647  c4                             615 
    x8        c1                             232  c6                             162 
    x8        c0                             785  c8                             935 
    x8        Obj                            571  c3                             733 
    x8        c9                             368 
    x9        c9                             376  c4                             446 
    x9        c8                             252  c6                             507 
    x9        c0                             852  Obj                            813 
    x9        c1                             285  c3                             861 
    x9        c7                             896  c5                             505 
    x9        c2                             420 
    x10       c9                             312  c3                             362 
    x10       Obj                            473  c4                              35 
    x10       c8                              76  c6                             316 
    x10       c0                             121  c5                             883 
    x10       c7                             263  c2                             586 
    x10       c1                             668 
    x11       c1                             636  c8                             337 
    x11       c0                             866  c9                             333 
    x11       c2                              53  c7                             724 
    x11       c3                             789  c6                             660 
    x11       c4                             150  c5                             418 
    x11       Obj                            682 
    x12       Obj                            697  c5                             504 
    x12       c3                             397  c1                             341 
    x12       c7                             397  c9                             798 
    x12       c8                             446  c0                             853 
    x12       c6                             119  c2                             145 
    x12       c4                             434 
    x13       c5                             283  c8                             204 
    x13       c3                             863  c7                             852 
    x13       c9                             907  c0                             831 
    x13       c1                             969  c6                             337 
    x13       c2                             629  c4                             304 
    x13       Obj                           1103 
    x14       Obj                            973  c4                             879 
    x14       c5                             440  c6                             957 
    x14       c7                             914  c1                             493 
    x14       c2                             831  c0                             566 
    x14       c3                             208  c9                             592 
    x14       c8                             723 
    x15       c9                             742  c1                             128 
    x15       c2                             766  c7                             708 
    x15       c6                             787  c8                             831 
    x15       Obj                            841  c3                             249 
    x15       c0                             641  c5                             236 
    x15       c4                             299 
    x16       c3                             248  Obj                            733 
    x16       c5                             321  c9                             895 
    x16       c1                             235  c4                             974 
    x16       c7                             323  c6                             232 
    x16       c0                             918  c8                             478 
    x16       c2                             140 
    x17       c7                             549  c3                             946 
    x17       c9                             949  Obj                            759 
    x17       c4                             844  c2                             892 
    x17       c1                             274  c5                             106 
    x17       c6                             714  c0                             771 
    x17       c8                             233 
    x18       c8                             453  c1                             129 
    x18       c5                             780  c6                             341 
    x18       c0                             258  c3                             566 
    x18       c9                             140  Obj                            620 
    x18       c7                              30  c2                             102 
    x18       c4                             147 
    x19       Obj                            704  c5                             876 
    x19       c8                             208  c0                             962 
    x19       c9                             884  c2                             857 
    x19       c6                              96  c3                             551 
    x19       c4                              39  c7                             521 
    x19       c1                             404 
    x20       c1                             852  c7                             920 
    x20       c3                             410  c4                             117 
    x20       Obj                           1015  c9                             666 
    x20       c8                              12  c0                             483 
    x20       c5                             687  c2                             722 
    x20       c6                             760 
    x21       c9                             841  c1                             812 
    x21       c2                             246  c4                             602 
    x21       Obj                            778  c5                             752 
    x21       c0                             298  c6                             132 
    x21       c3                             302  c8                             892 
    x21       c7                             844 
    x22       c8                             923  Obj                           1036 
    x22       c0                             409  c1                             621 
    x22       c9                             950  c2                             784 
    x22       c5                             787  c7                             373 
    x22       c4                             140  c3                             699 
    x22       c6                             711 
    x23       c8                             274  c6                             587 
    x23       c0                             352  Obj                            695 
    x23       c9                             763  c1                             645 
    x23       c2                              16  c5                             708 
    x23       c7                             192  c4                             598 
    x23       c3                             989 
    x24       c3                             259  c0                             765 
    x24       c6                              45  c9                             167 
    x24       Obj                            468  c1                             800 
    x24       c7                             560  c2                             412 
    x24       c4                             308  c5                             285 
    x24       c8                             832 
    x25       c9                             362  c0                             990 
    x25       c3                             323  c1                             651 
    x25       c7                             207  c8                             486 
    x25       Obj                            451  c6                             580 
    x25       c5                             145  c4                             429 
    x25       c2                             249 
    x26       Obj                            522  c5                             896 
    x26       c9                             523  c2                             394 
    x26       c0                             699  c3                             325 
    x26       c7                             671  c8                             707 
    x26       c4                              22  c1                              21 
    x26       c6                              95 
    x27       c5                             724  c0                             878 
    x27       c3                             769  Obj                            724 
    x27       c7                             822  c6                             590 
    x27       c1                             507  c8                              25 
    x27       c9                             649  c4                             344 
    x27       c2                             597 
    x28       c1                             966  c9                              18 
    x28       Obj                            581  c7                             958 
    x28       c6                              25  c2                             802 
    x28       c3                             716  c8                             124 
    x28       c0                             801  c4                             801 
    x28       c5                             533 
    x29       c8                              15  c9                             362 
    x29       c7                             214  c6                             614 
    x29       c0                              83  Obj                            521 
    x29       c4                             876  c3                             760 
    x29       c2                             467  c5                             137 
    x29       c1                             829 
    x30       c0                             949  c6                             272 
    x30       c3                             469  c7                             352 
    x30       c1                             791  Obj                            951 
    x30       c4                              56  c8                             385 
    x30       c9                             310  c5                              91 
    x30       c2                             967 
    x31       c7                             612  c4                              68 
    x31       c1                             199  c2                             254 
    x31       c0                             586  Obj                            502 
    x31       c6                              47  c8                             904 
    x31       c3                             165  c5                             427 
    x31       c9                             348 
    x32       c7                             885  c3                             981 
    x32       c4                             984  c6                             437 
    x32       c2                              66  c1                             874 
    x32       c5                             504  c9                             199 
    x32       c8                             917  c0                              46 
    x32       Obj                           1022 
    x33       c2                              11  c0                             506 
    x33       c8                             335  c1                             404 
    x33       c3                             317  c9                             282 
    x33       Obj                            604  c4                             923 
    x33       c7                             365  c6                             921 
    x33       c5                             305 
    x34       c4                             794  c6                             174 
    x34       c9                             739  c0                             178 
    x34       c3                             848  c5                             262 
    x34       c7                             474  c2                             656 
    x34       Obj                            622  c1                             883 
    x34       c8                             717 
    x35       c4                              87  c5                             214 
    x35       c9                              63  c3                             500 
    x35       Obj                            756  c7                             907 
    x35       c8                             580  c2                             458 
    x35       c1                             284  c0                             563 
    x35       c6                             347 
    x36       c6                             778  c2                             105 
    x36       c1                             660  c9                             153 
    x36       c7                             903  c8                              52 
    x36       Obj                            804  c5                             885 
    x36       c4                             396  c3                             685 
    x36       c0                             141 
    x37       c4                             872  c9                             516 
    x37       c8                              29  c6                              14 
    x37       c2                             628  c1                             764 
    x37       Obj                            596  c5                             590 
    x37       c7                             173  c0                             668 
    x37       c3                             202 
    x38       c0                             464  Obj                            674 
    x38       c2                             502  c4                              58 
    x38       c1                             535  c6                             662 
    x38       c9                             143  c7                             723 
    x38       c8                             379  c5                             955 
    x38       c3                             738 
    x39       c8                             758  c6                             626 
    x39       Obj                            570  c0                             444 
    x39       c5                             647  c1                             568 
    x39       c7                             959  c2                             107 
    x39       c9                             461  c4                             330 
    x39       c3                             313 
    x40       c3                             174  c9                             920 
    x40       c7                             970  c1                             525 
    x40       c4                             301  c2                             381 
    x40       c6                             111  c0                              27 
    x40       c8                             121  c5                             739 
    x40       Obj                            742 
    x41       Obj                            403  c0                             157 
    x41       c8                             915  c7                             145 
    x41       c4                             687  c1                             369 
    x41       c6                             635  c5                             192 
    x41       c2                             485  c9                              73 
    x41       c3                             307 
    x42       c8                             309  c0                             394 
    x42       c9                             178  c5                             702 
    x42       c7                             228  Obj                            745 
    x42       c3                             955  c6                             735 
    x42       c2                             885  c1                             436 
    x42       c4                             513 
    x43       c1                             489  c8                             524 
    x43       c0                             734  c9                             897 
    x43       c6                             740  c3                             612 
    x43       c4                             983  Obj                           1178 
    x43       c5                             700  c2                             905 
    x43       c7                             438 
    x44       c7                             837  Obj                            725 
    x44       c8                              11  c1                             271 
    x44       c2                             150  c0                             896 
    x44       c9                             726  c3                             678 
    x44       c6                             466  c4                             775 
    x44       c5                             134 
    x45       c5                             803  Obj                            540 
    x45       c1                             838  c2                             306 
    x45       c0                             268  c7                             744 
    x45       c4                              69  c9                             108 
    x45       c8                             437  c3                             762 
    x45       c6                             380 
    x46       c8                             448  c3                             158 
    x46       c6                             183  c5                             193 
    x46       c7                             959  c1                             994 
    x46       c2                             129  c9                             978 
    x46       c0                             409  c4                             992 
    x46       Obj                            627 
    x47       c3                             723  c1                             792 
    x47       c2                             251  c0                             919 
    x47       c4                             817  c6                             791 
    x47       c9                             731  c8                              60 
    x47       c5                             236  Obj                            957 
    x47       c7                             221 
    x48       c8                             866  Obj                            926 
    x48       c6                             759  c4                             252 
    x48       c2                             928  c9                             816 
    x48       c7                             534  c0                             477 
    x48       c5                             355  c3                             662 
    x48       c1                             172 
    x49       c5                             352  c7                             751 
    x49       c3                             747  c0                             876 
    x49       c1                             661  c8                             502 
    x49       c9                             931  c4                             540 
    x49       c2                             152  Obj                            690 
    x49       c6                             741 
    x50       c3                              46  c8                             865 
    x50       c9                             718  c4                              33 
    x50       c2                             932  c7                             854 
    x50       c5                              19  c6                             661 
    x50       Obj                            887  c0                              89 
    x50       c1                             868 
    x51       c6                             510  c8                             464 
    x51       c2                             828  c7                             510 
    x51       c4                             654  c1                             415 
    x51       c3                             338  c0                              29 
    x51       c9                             515  c5                             178 
    x51       Obj                            567 
    x52       c3                             664  c8                             409 
    x52       c5                              28  c2                             554 
    x52       c7                             865  c6                             920 
    x52       c1                             187  c4                             294 
    x52       c0                             927  c9                             132 
    x52       Obj                            933 
    x53       c5                             120  c2                             195 
    x53       c6                             495  c0                             636 
    x53       c7                             316  c1                             210 
    x53       c4                             147  c3                             725 
    x53       Obj                            822  c9                             617 
    x53       c8                              65 
    x54       c1                             675  c8                              94 
    x54       c3                             456  c6                             659 
    x54       c5                             552  c0                             412 
    x54       c9                             296  Obj                            803 
    x54       c7                             219  c4                             464 
    x54       c2                             791 
    x55       c5                             247  c4                               6 
    x55       c9                             755  Obj                            541 
    x55       c6                             696  c0                              17 
    x55       c7                             627  c1                             849 
    x55       c2                             134  c8                             192 
    x55       c3                             795 
    x56       Obj                            629  c4                             711 
    x56       c3                             243  c5                             211 
    x56       c8                             380  c0                             510 
    x56       c2                             563  c9                             143 
    x56       c1                             905  c7                             904 
    x56       c6                             538 
    x57       c6                             768  c5                             477 
    x57       c9                             661  c1                             854 
    x57       c8                             120  Obj                           1111 
    x57       c2                             560  c3                             486 
    x57       c7                             747  c4                             954 
    x57       c0                             838 
    x58       c8                             700  c9                             391 
    x58       c0                             721  c4                              30 
    x58       Obj                            501  c3                              54 
    x58       c2                             389  c1                             731 
    x58       c5                               6  c6                             183 
    x58       c7                             771 
    x59       c5                             809  c3                             588 
    x59       c7                             474  c6                             533 
    x59       c9                             670  c1                             518 
    x59       c4                             112  c2                              50 
    x59       c8                             106  c0                             931 
    x59       Obj                            907 
    x60       c6                             836  c1                              61 
    x60       c5                             623  c9                              36 
    x60       c8                             382  c0                             476 
    x60       c2                             466  c4                             748 
    x60       Obj                            862  c7                             653 
    x60       c3                              94 
    x61       c6                             921  c5                             321 
    x61       c2                             489  Obj                            534 
    x61       c9                             560  c8                             159 
    x61       c7                             257  c4                             977 
    x61       c3                             260  c1                             260 
    x61       c0                             794 
    x62       c2                             742  c6                             957 
    x62       c9                             191  c0                             322 
    x62       c5                             397  c8                             900 
    x62       c7                             785  c4                             689 
    x62       Obj                           1097  c1                             792 
    x62       c3                             225 
    x63       Obj                            870  c4                             249 
    x63       c6                             681  c7                             790 
    x63       c2                             283  c8                             938 
    x63       c5                             853  c3                             682 
    x63       c9                             378  c0                             545 
    x63       c1                             403 
    x64       c2                             154  c7                             152 
    x64       c5                             743  c6                             935 
    x64       c9                             987  c8                              71 
    x64       c1                             834  c0                             958 
    x64       c3                             486  Obj                            637 
    x64       c4                              78 
    x65       c4                             990  c8                             981 
    x65       Obj                            622  c2                             444 
    x65       c3                             443  c6                             534 
    x65       c5                             235  c7                             386 
    x65       c1                             749  c9                               9 
    x65       c0                             592 
    x66       Obj                           1013  c2                             528 
    x66       c6                             775  c9                             866 
    x66       c3                             380  c1                             590 
    x66       c5                             436  c7                             412 
    x66       c0                             889  c4                             229 
    x66       c8                             549 
    x67       c8                             305  c3                             161 
    x67       c7                             633  c5                             574 
    x67       c2                             821  c9                             198 
    x67       Obj                            641  c1                             123 
    x67       c4                             316  c0                             967 
    x67       c6                             974 
    x68       c7                             729  Obj                            783 
    x68       c9                             327  c0                             524 
    x68       c1                             555  c2                             911 
    x68       c6                             758  c4                             766 
    x68       c5                             665  c8                             991 
    x68       c3                             319 
    x69       c7                              43  c3                             345 
    x69       c0                             184  c1                             627 
    x69       c4                             432  c8                             472 
    x69       c5                             701  c9                             449 
    x69       Obj                            782  c6                             327 
    x69       c2                             954 
    x70       c7                             256  c6                             815 
    x70       c3                             848  c5                             852 
    x70       c8                              95  c2                             629 
    x70       c9                             155  Obj                            783 
    x70       c4                             945  c0                             848 
    x70       c1                             595 
    x71       c4                             424  c8                             567 
    x71       c3                             545  c0                             885 
    x71       c1                             288  c7                             451 
    x71       c6                             220  Obj                            788 
    x71       c5                             723  c2                             129 
    x71       c9                             876 
    x72       c0                             184  c3                             588 
    x72       Obj                            901  c1                             584 
    x72       c8                             334  c7                              85 
    x72       c5                             880  c2                             916 
    x72       c6                             274  c4                             739 
    x72       c9                             142 
    x73       c7                             926  c2                             968 
    x73       Obj                           1076  c9                             789 
    x73       c1                             760  c3                             498 
    x73       c5                             206  c8                              61 
    x73       c6                             577  c0                             249 
    x73       c4                             831 
    x74       c2                             149  c5                             414 
    x74       c7                              22  c6                             890 
    x74       c8                             820  c9                             694 
    x74       Obj                            659  c0                             346 
    x74       c3                             795  c4                             233 
    x74       c1                             870 
    x75       c6                             720  c7                             873 
    x75       c5                             370  c9                             390 
    x75       c8                             713  c2                             757 
    x75       Obj                            890  c4                             620 
    x75       c1                              15  c3                             944 
    x75       c0                             203 
    x76       Obj                            689  c5                             889 
    x76       c7                             441  c4                             966 
    x76       c2                             727  c6                             988 
    x76       c0                             137  c8                             807 
    x76       c9                             695  c3                             207 
    x76       c1                             427 
    x77       c1                             996  c5                             504 
    x77       c8                             794  c2                             280 
    x77       Obj                            869  c4                             647 
    x77       c3                             548  c9                             118 
    x77       c7                             448  c0                             811 
    x77       c6                             812 
    x78       c3                             399  c4                             391 
    x78       c8                             951  Obj                            820 
    x78       c6                              93  c2                             946 
    x78       c0                             645  c7                             954 
    x78       c9                              73  c1                              59 
    x78       c5                             290 
    x79       c5                             303  c9                             815 
    x79       c4                             499  c1                             759 
    x79       c8                             816  c0                             126 
    x79       c2                             357  c3                             450 
    x79       c6                             765  Obj                            849 
    x79       c7                             662 
    x80       c7                             495  c2                             643 
    x80       c6                             232  Obj                            807 
    x80       c5                             261  c9                              45 
    x80       c8                             343  c3                             303 
    x80       c0                             564  c4                             448 
    x80       c1                             544 
    x81       c3                             907  c8                             116 
    x81       c6                             346  c4                             457 
    x81       c0                             118  c9                             322 
    x81       Obj                            851  c1                             561 
    x81       c5                             970  c7                              76 
    x81       c2                             724 
    x82       c2                             325  c1                               6 
    x82       c0                             237  c8                             290 
    x82       c9                             528  c6                             596 
    x82       c3                             580  c7                             888 
    x82       c5                             406  c4                             329 
    x82       Obj                            445 
    x83       Obj                            553  c3                             768 
    x83       c8                             631  c5                             938 
    x83       c4                             288  c1                             328 
    x83       c2                             284  c7                             563 
    x83       c6                             332  c0                             719 
    x83       c9                              96 
    x84       c2                             252  c5                             677 
    x84       c4                             536  c7                             827 
    x84       c6                             151  Obj                            594 
    x84       c9                             853  c0                             703 
    x84       c1                             472  c8                             834 
    x84       c3                             276 
    x85       c0                             526  c5                             579 
    x85       c3                             690  c6                             501 
    x85       c7                             182  c8                             991 
    x85       Obj                            584  c9                             177 
    x85       c1                             551  c2                             944 
    x85       c4                             640 
    x86       c7                             838  Obj                            574 
    x86       c0                             231  c4                             936 
    x86       c1                             483  c3                             837 
    x86       c6                             319  c2                             388 
    x86       c8                             849  c9                             211 
    x86       c5                             283 
    x87       c0                             496  c7                             110 
    x87       c6                             805  Obj                            441 
    x87       c2                             241  c9                             199 
    x87       c5                             227  c1                             555 
    x87       c4                             224  c3                             124 
    x87       c8                             851 
    x88       c2                             160  c1                              12 
    x88       c4                             734  c6                             321 
    x88       c5                              22  Obj                            416 
    x88       c3                             980  c8                             832 
    x88       c9                               1  c0                             645 
    x88       c7                             332 
    x89       c1                             350  c9                              71 
    x89       c2                             940  c7                             511 
    x89       c0                               5  c8                             369 
    x89       Obj                            656  c5                             635 
    x89       c6                              69  c4                             524 
    x89       c3                             766 
    x90       c7                             879  c3                               3 
    x90       Obj                            769  c6                             260 
    x90       c0                             146  c8                             696 
    x90       c1                             407  c2                             680 
    x90       c4                             813  c9                             553 
    x90       c5                             942 
    x91       c5                             998  c6                             443 
    x91       c0                              54  c4                             906 
    x91       c7                             595  c2                             546 
    x91       c9                             375  c8                             240 
    x91       Obj                            771  c1                             797 
    x91       c3                             504 
    x92       c0                             553  c4                             430 
    x92       c1                              34  c9                             530 
    x92       c8                             513  c6                             980 
    x92       c3                             747  c5                             689 
    x92       Obj                            735  c2                             602 
    x92       c7                             779 
    x93       c0                             655  c8                             877 
    x93       Obj                            730  c9                             532 
    x93       c4                             448  c1                             496 
    x93       c5                             850  c3                              35 
    x93       c6                             284  c7                             724 
    x93       c2                             692 
    x94       c0                             877  c9                              97 
    x94       Obj                            607  c4                             796 
    x94       c8                             325  c1                             753 
    x94       c6                             610  c7                             877 
    x94       c3                             716  c5                             596 
    x94       c2                             111 
    x95       Obj                            906  c1                             954 
    x95       c3                             289  c9                             747 
    x95       c4                             807  c0                             988 
    x95       c6                             681  c5                             414 
    x95       c8                             983  c2                             633 
    x95       c7                             869 
    x96       c8                             990  c3                              69 
    x96       c9                             392  c5                             826 
    x96       c4                             485  c0                              59 
    x96       c6                             503  c7                             549 
    x96       c2                             822  Obj                            818 
    x96       c1                             482 
    x97       c1                             626  c3                             538 
    x97       c4                             611  c9                             653 
    x97       c6                             818  c7                             733 
    x97       c0                             732  Obj                            986 
    x97       c2                             824  c8                             569 
    x97       c5                             108 
    x98       c6                             610  Obj                            553 
    x98       c2                              87  c9                             901 
    x98       c5                             146  c0                             144 
    x98       c7                             180  c4                             150 
    x98       c8                             773  c1                             645 
    x98       c3                             873 
    x99       c3                             871  c4                             168 
    x99       c5                             364  c2                             425 
    x99       c8                             489  Obj                            789 
    x99       c0                             573  c7                             867 
    x99       c6                             903  c1                             372 
    x99       c9                             567 
    INTEND    'MARKER'                            'INTEND'                           
RHS
    RHS       c0                           39924  c1                           39321 
    RHS       c2                           35729  c3                           38899 
    RHS       c4                           37385  c5                           36437 
    RHS       c6                           39217  c7                           42092 
    RHS       c8                           36935  c9                           34611 
BOUNDS
 BV Bound     x0                                 
 BV Bound     x1                                 
 BV Bound     x2                                 
 BV Bound     x3                                 
 BV Bound     x4                                 
 BV Bound     x5                                 
 BV Bound     x6                                 
 BV Bound     x7                                 
 BV Bound     x8                                 
 BV Bound     x9                                 
 BV Bound     x10                                
 BV Bound     x11                                
 BV Bound     x12                                
 BV Bound     x13                                
 BV Bound     x14                                
 BV Bound     x15                                
 BV Bound     x16                                
 BV Bound     x17                                
 BV Bound     x18                                
 BV Bound     x19                                
 BV Bound     x20                                
 BV Bound     x21                                
 BV Bound     x22                                
 BV Bound     x23                                
 BV Bound     x24                                
 BV Bound     x25                                
 BV Bound     x26                                
 BV Bound     x27                                
 BV Bound     x28                                
 BV Bound     x29                                
 BV Bound     x30                                
 BV Bound     x31                                
 BV Bound     x32                                
 BV Bound     x33                                
 BV Bound     x34                                
 BV Bound     x35                                
 BV Bound     x36                                
 BV Bound     x37                                
 BV Bound     x38                                
 BV Bound     x39                                
 BV Bound     x40                                
 BV Bound     x41                                
 BV Bound     x42                                
 BV Bound     x43                                
 BV Bound     x44                                
 BV Bound     x45                                
 BV Bound     x46                                
 BV Bound     x47                                
 BV Bound     x48                                
 BV Bound     x49                                
 BV Bound     x50                                
 BV Bound     x51                                
 BV Bound     x52                                
 BV Bound     x53                                
 BV Bound     x54                                
 BV Bound     x55                                
 BV Bound     x56                                
 BV Bound     x57                                
 BV Bound     x58                                
 BV Bound     x59                                
 BV Bound     x60                                
 BV Bound     x61                                
 BV Bound     x62                                
 BV Bound     x63                                
 BV Bound     x64                                
 BV Bound     x65                                
 BV Bound     x66                                
 BV Bound     x67                                
 BV Bound     x68                                
 BV Bound     x69                                
 BV Bound     x70                                
 BV Bound     x71                                
 BV Bound     x72                                
 BV Bound     x73                                
 BV Bound     x74                                
 BV Bound     x75                                
 BV Bound     x76                                
 BV Bound     x77                                
 BV Bound     x78                                
 BV Bound     x79                                
 BV Bound     x80                                
 BV Bound     x81                                
 BV Bound     x82                                
 BV Bound     x83                                
 BV Bound     x84                                
 BV Bound     x85                                
 BV Bound     x86                                
 BV Bound     x87                                
 BV Bound     x88                                
 BV Bound     x89                                
 BV Bound     x90                                
 BV Bound     x91                                
 BV Bound     x92                                
 BV Bound     x93                                
 BV Bound     x94                                
 BV Bound     x95                                
 BV Bound     x96                                
 BV Bound     x97                                
 BV Bound     x98                                
 BV Bound     x99                                
ENDATA