* SCIP STATISTICS
*   Problem name     : mknap_44
*   Variables        : 40 (40 binary, 0 integer, 0 implicit integer, 0 continuous)
*   Constraints      : 30
NAME          mknap_44
OBJSENSE
  MAX
ROWS
 N  Obj 
 L  c0 
 L  c1 
 L  c2 
 L  c3 
 L  c4 
 L  c5 
 L  c6 
 L  c7 
 L  c8 
 L  c9 
 L  c10 
 L  c11 
 L  c12 
 L  c13 
 L  c14 
 L  c15 
 L  c16 
 L  c17 
 L  c18 
 L  c19 
 L  c20 
 L  c21 
 L  c22 
 L  c23 
 L  c24 
 L  c25 
 L  c26 
 L  c27 
 L  c28 
 L  c29 
COLUMNS
    INTSTART  'MARKER'                            'INTORG'                           
    x0        Obj                             82  c9                              16 
    x0        c17                             83  c27                             91 
    x0        c1                              16  c23                            359 
    x0        c8                              53  c26                            644 
    x0        c18                             62  c2                              33 
    x0        c4                             638  c16                             89 
    x0        c28                            674  c12                              7 
    x0        c13                             59  c19                             89 
    x0        c10                             75  c22                             86 
    x0        c5                             978  c7                              16 
    x0        c15                            964  c24                              2 
    x0        c25                            640  c20                             14 
    x0        c3                              51  c0                             524 
    x0        c14                            748  c11                             95 
    x0        c21                             56  c6                             504 
    x0        c29                             53 
    x1        c19                              7  c29                             55 
    x1        c6                              37  c21                            780 
    x1        c11                             89  c14                            654 
    x1        Obj                             77  c9                              51 
    x1        c17                              2  c27                             13 
    x1        c0                             774  c1                              67 
    x1        c3                             114  c23                             12 
    x1        c8                              36  c20                             62 
    x1        c26                             59  c24                             19 
    x1        c22                             75  c15                            900 
    x1        c25                             36  c4                             720 
    x1        c5                              53  c7                              27 
    x1        c16                             26  c10                             51 
    x1        c2                              42  c12                             63 
    x1        c28                             93  c18                            290 
    x1        c13                              6 
    x2        c29                              9  c18                             72 
    x2        c19                             22  c28                             63 
    x2        c7                             206  c15                             99 
    x2        c2                             644  c13                            218 
    x2        c12                              3  c10                             23 
    x2        c16                             96  c25                             35 
    x2        c4                             809  c5                             983 
    x2        c24                            864  c26                             33 
    x2        c22                             99  c20                            464 
    x2        c21                             56  c0                             818 
    x2        c1                             792  c8                             650 
    x2        c23                            130  c11                              5 
    x2        c27                            224  c17                            630 
    x2        c3                             716  Obj                            110 
    x2        c9                             310  c6                             619 
    x2        c14                             46 
    x3        c9                              21  c20                            292 
    x3        c23                            481  c17                             61 
    x3        c0                              56  c27                            120 
    x3        Obj                             67  c25                            843 
    x3        c3                             668  c19                             45 
    x3        c10                             26  c22                            554 
    x3        c15                             51  c4                              31 
    x3        c7                              57  c8                             210 
    x3        c1                              99  c6                              93 
    x3        c12                             63  c14                             69 
    x3        c13                             36  c29                            264 
    x3        c26                            671  c11                             81 
    x3        c5                               3  c21                            588 
    x3        c18                            844  c16                             37 
    x3        c28                            490  c24                            535 
    x3        c2                              96 
    x4        c2                              23  c24                            800 
    x4        c21                             93  c11                            270 
    x4        c28                              1  c16                             39 
    x4        c18                              6  c5                              93 
    x4        c13                             92  c29                             73 
    x4        c26                             89  c15                            628 
    x4        c23                             92  c12                            338 
    x4        c7                               7  c8                             218 
    x4        c4                              12  c22                            704 
    x4        c10                             99  c17                             62 
    x4        c19                             63  c6                             218 
    x4        c3                              23  c1                              21 
    x4        c25                            718  Obj                             61 
    x4        c14                              3  c27                             85 
    x4        c0                              26  c20                             29 
    x4        c9                               7 
    x5        c11                            491  c0                              22 
    x5        c14                            769  c9                              43 
    x5        c20                            340  c1                             794 
    x5        Obj                              3  c10                            426 
    x5        c25                             22  c22                            800 
    x5        c3                              43  c17                            638 
    x5        c4                              82  c8                             520 
    x5        c6                              23  c19                            148 
    x5        c7                              87  c12                            402 
    x5        c27                              7  c28                             63 
    x5        c29                             35  c23                             26 
    x5        c26                            364  c18                            570 
    x5        c13                            321  c16                             89 
    x5        c24                              3  c2                              49 
    x5        c15                            150  c5                              37 
    x5        c21                             86 
    x6        c11                              6  c0                              42 
    x6        c21                             23  c5                             704 
    x6        c15                             22  c24                             27 
    x6        c16                              6  c13                             22 
    x6        c2                              57  c9                              25 
    x6        c18                             13  c23                            624 
    x6        c29                             92  c26                            854 
    x6        c27                             92  c28                            870 
    x6        c7                              21  c6                              47 
    x6        c8                              33  c20                            278 
    x6        c4                             688  c12                            664 
    x6        Obj                              6  c17                             61 
    x6        c3                              55  c25                             76 
    x6        c22                              6  c10                             92 
    x6        c14                             82  c1                              53 
    x6        c19                             91 
    x7        Obj                             85  c15                             79 
    x7        c28                             49  c18                             16 
    x7        c12                             21  c6                             303 
    x7        c10                             99  c2                             931 
    x7        c13                            138  c24                             36 
    x7        c26                             21  c16                             53 
    x7        c21                             94  c22                            670 
    x7        c9                             860  c7                             624 
    x7        c8                              12  c20                             83 
    x7        c3                             973  c4                             868 
    x7        c23                            714  c27                             72 
    x7        c25                              8  c1                              81 
    x7        c19                             33  c14                            624 
    x7        c0                              20  c11                             72 
    x7        c29                             31  c17                             73 
    x7        c5                             581 
    x8        c5                             698  c16                            869 
    x8        c1                              73  c29                             35 
    x8        c17                            494  c11                            410 
    x8        c0                              47  c19                            624 
    x8        c14                            967  c23                             53 
    x8        c25                             17  c4                              61 
    x8        c8                              16  c20                             33 
    x8        c7                              33  c21                             19 
    x8        c22                             47  c9                              45 
    x8        c26                             65  c13                            423 
    x8        c24                              9  c27                            468 
    x8        c10                             11  c2                              36 
    x8        c6                              71  c12                            553 
    x8        c28                             23  c18                            267 
    x8        Obj                              2  c15                            132 
    x8        c3                              47 
    x9        c20                            374  c15                            628 
    x9        c29                             61  Obj                             22 
    x9        c27                            920  c2                               5 
    x9        c3                               3  c12                            128 
    x9        c28                            984  c22                             49 
    x9        c6                              56  c7                              92 
    x9        c24                            974  c10                             51 
    x9        c13                             53  c9                              82 
    x9        c26                              2  c21                             86 
    x9        c4                              17  c8                              86 
    x9        c0                              37  c25                             33 
    x9        c11                             12  c14                            948 
    x9        c23                             21  c1                              87 
    x9        c19                             47  c5                              97 
    x9        c16                              2  c17                             71 
    x9        c18                             32 
    x10       c15                             52  c16                            394 
    x10       c19                             96  c1                             837 
    x10       c23                            743  c5                             712 
    x10       c17                             75  c14                            684 
    x10       c11                            644  c24                            876 
    x10       c25                            972  c8                             324 
    x10       c0                             662  c21                            570 
    x10       c4                             775  c26                            584 
    x10       c10                             77  c13                            828 
    x10       c9                             354  c6                             593 
    x10       c7                             770  c28                            131 
    x10       c22                            199  c12                             88 
    x10       c20                            389  c3                             350 
    x10       c2                             596  Obj                            238 
    x10       c27                            949  c29                            670 
    x10       c18                             69 
    x11       c8                             100  c22                             85 
    x11       c15                            154  c21                            518 
    x11       c18                             65  c11                             79 
    x11       c16                             82  c14                             15 
    x11       c23                             13  c12                            458 
    x11       c2                             978  c24                             21 
    x11       c20                            818  c29                             65 
    x11       c9                              42  c0                              21 
    x11       Obj                             33  c28                             52 
    x11       c5                              42  c19                             69 
    x11       c7                              15  c17                             62 
    x11       c10                             66  c26                            570 
    x11       c4                              82  c27                             93 
    x11       c13                             16  c6                             744 
    x11       c3                              56  c25                             39 
    x11       c1                             234 
    x12       c8                             894  c25                             96 
    x12       c3                              77  c26                             95 
    x12       c6                             214  c5                              45 
    x12       c17                            198  Obj                             56 
    x12       c10                             85  c7                              32 
    x12       c19                             42  c9                              72 
    x12       c28                             39  c27                              7 
    x12       c0                              42  c29                             66 
    x12       c4                              81  c22                             69 
    x12       c23                              3  c2                              82 
    x12       c13                             93  c14                             22 
    x12       c24                             73  c16                             46 
    x12       c15                             21  c18                             27 
    x12       c11                            910  c12                            508 
    x12       c1                              64  c20                            888 
    x12       c21                            108 
    x13       c14                            586  c24                             11 
    x13       c16                            541  c1                              65 
    x13       c12                            222  c21                            218 
    x13       c10                            554  c6                              67 
    x13       c5                              91  c19                            224 
    x13       c9                              76  c28                             99 
    x13       c17                            958  c29                             37 
    x13       Obj                             63  c13                            622 
    x13       c8                             818  c25                             76 
    x13       c26                             26  c23                            718 
    x13       c27                             57  c4                             860 
    x13       c7                              13  c0                              57 
    x13       c20                             37  c15                            663 
    x13       c2                              59  c18                            236 
    x13       c3                              97  c11                            595 
    x13       c22                              3 
    x14       c3                              28  c18                             83 
    x14       Obj                             69  c15                            968 
    x14       c20                              3  c2                              37 
    x14       c4                              85  c7                               1 
    x14       c23                             33  c0                              97 
    x14       c17                             70  c25                             42 
    x14       c27                             13  c8                              39 
    x14       c29                             96  c12                            804 
    x14       c13                             13  c28                            338 
    x14       c9                              73  c6                              53 
    x14       c10                             19  c26                            924 
    x14       c22                             77  c24                              2 
    x14       c5                              56  c21                             86 
    x14       c1                             908  c14                            700 
    x14       c19                             56  c16                             26 
    x14       c11                             85 
    x15       c14                            343  c19                            970 
    x15       c1                              18  c5                              32 
    x15       c24                            130  c6                              22 
    x15       c26                             87  c10                            604 
    x15       c22                             63  c9                              37 
    x15       c28                              6  c8                               7 
    x15       c13                            189  c23                            930 
    x15       c3                              75  c12                            720 
    x15       c25                            378  c15                            846 
    x15       c0                              75  c17                            232 
    x15       c29                             21  c7                               2 
    x15       Obj                             47  c2                              22 
    x15       c21                            718  c20                             60 
    x15       c4                              49  c27                            538 
    x15       c18                            482  c16                            268 
    x15       c11                            167 
    x16       c11                            430  c21                             63 
    x16       c28                            114  c13                             36 
    x16       c5                              41  c14                             83 
    x16       c10                             96  c23                             13 
    x16       c3                              61  c0                              53 
    x16       c29                             86  Obj                             63 
    x16       c20                             42  c27                            920 
    x16       c12                             75  c15                            620 
    x16       c9                              99  c6                              96 
    x16       c19                             65  c16                             82 
    x16       c1                             758  c26                            804 
    x16       c24                            694  c22                            674 
    x16       c8                              27  c2                              71 
    x16       c17                            174  c25                             89 
    x16       c7                             644  c18                             97 
    x16       c4                              72 
    x17       c28                             69  c6                              16 
    x17       Obj                             75  c29                             83 
    x17       c18                            274  c20                             40 
    x17       c17                             25  c8                             318 
    x17       c5                             664  c27                             65 
    x17       c12                             45  c21                             81 
    x17       c16                             72  c9                              79 
    x17       c22                            924  c15                            840 
    x17       c4                              72  c23                              1 
    x17       c0                              49  c10                             77 
    x17       c3                              95  c1                              22 
    x17       c24                             16  c14                             57 
    x17       c19                             67  c2                             788 
    x17       c25                             96  c13                             75 
    x17       c7                               4  c11                             21 
    x17       c26                             17 
    x18       c21                            400  c18                             31 
    x18       c0                              76  c19                             96 
    x18       c26                              2  c24                              7 
    x18       c7                              13  c9                              59 
    x18       c22                             55  c16                            710 
    x18       c1                              27  c8                             538 
    x18       c3                              26  c11                            414 
    x18       c20                            928  c12                             35 
    x18       c10                             97  c28                             87 
    x18       c2                              56  c15                             72 
    x18       c13                             58  c17                             25 
    x18       c25                             77  c23                             79 
    x18       c27                              9  c29                             21 
    x18       c6                             978  c4                               7 
    x18       Obj                              6  c5                             290 
    x18       c14                             46 
    x19       Obj                             83  c6                              53 
    x19       c4                              13  c25                             65 
    x19       c0                              96  c23                             88 
    x19       c13                            968  c7                             100 
    x19       c15                             73  c2                              96 
    x19       c29                             19  c17                            600 
    x19       c28                             47  c27                             37 
    x19       c20                             42  c3                              33 
    x19       c11                             89  c8                              43 
    x19       c16                             16  c22                             22 
    x19       c21                            938  c26                            168 
    x19       c9                              85  c18                             55 
    x19       c12                             55  c24                            334 
    x19       c19                             27  c10                             55 
    x19       c1                              91  c5                              86 
    x19       c14                             65 
    x20       c14                             21  c25                            344 
    x20       c0                             834  c18                            554 
    x20       c28                             86  c10                              7 
    x20       c24                            248  c9                              52 
    x20       c26                             42  c7                             604 
    x20       c21                             96  c1                              13 
    x20       c20                             35  c3                             430 
    x20       c22                            214  c12                            750 
    x20       c17                            268  c16                              5 
    x20       c8                              46  c19                              2 
    x20       c2                              55  c11                              6 
    x20       c15                              6  c6                             884 
    x20       Obj                             47  c27                            200 
    x20       c29                             79  c13                             66 
    x20       c23                             41  c5                              22 
    x20       c4                             740 
    x21       c0                             785  c25                             87 
    x21       c16                            934  c13                             89 
    x21       c14                             66  c27                             57 
    x21       c23                             91  Obj                             47 
    x21       c1                             435  c19                             75 
    x21       c15                            110  c5                             234 
    x21       c6                             796  c21                             43 
    x21       c29                              7  c11                            948 
    x21       c2                             283  c8                             206 
    x21       c28                             12  c22                            864 
    x21       c3                             950  c17                             15 
    x21       c20                             76  c12                              1 
    x21       c4                             830  c7                             854 
    x21       c24                             25  c26                             42 
    x21       c10                             85  c18                             97 
    x21       c9                             798 
    x22       c9                              45  c5                              57 
    x22       c8                              92  Obj                              7 
    x22       c4                              72  c22                            718 
    x22       c15                             22  c29                              2 
    x22       c12                             96  c19                             83 
    x22       c23                             36  c28                             52 
    x22       c3                             590  c17                             95 
    x22       c14                             51  c10                            760 
    x22       c24                             86  c20                             69 
    x22       c2                             348  c25                             17 
    x22       c16                             88  c27                             12 
    x22       c0                              42  c18                             47 
    x22       c13                            440  c1                              86 
    x22       c21                              6  c6                              36 
    x22       c11                            904  c7                              96 
    x22       c26                            918 
    x23       c21                             69  c17                            898 
    x23       c7                             910  c16                             93 
    x23       c18                              7  Obj                              6 
    x23       c11                             67  c4                              30 
    x23       c29                             46  c9                              26 
    x23       c5                             784  c6                               3 
    x23       c1                              29  c13                             91 
    x23       c8                              65  c27                             31 
    x23       c22                             56  c25                             17 
    x23       c2                              66  c19                             69 
    x23       c0                              39  c15                             20 
    x23       c12                             31  c24                            944 
    x23       c23                             30  c20                             95 
    x23       c10                            104  c3                              32 
    x23       c28                            110  c14                             19 
    x23       c26                              6 
    x24       c21                             50  c14                            882 
    x24       c3                             297  c10                            580 
    x24       c20                             46  c23                             16 
    x24       c12                            846  c24                             79 
    x24       c15                            497  c2                             873 
    x24       c19                            832  c28                             61 
    x24       c22                             67  c25                             62 
    x24       c29                             15  c27                             79 
    x24       Obj                             53  c0                             979 
    x24       c13                             62  c8                             944 
    x24       c1                             377  c9                             560 
    x24       c26                             96  c5                             503 
    x24       c6                             724  c4                             221 
    x24       c18                            480  c11                            994 
    x24       c7                             372  c16                             56 
    x24       c17                            515 
    x25       c7                              39  c6                              31 
    x25       Obj                             76  c20                             32 
    x25       c5                               2  c17                            464 
    x25       c8                              16  c16                             95 
    x25       c21                             76  c4                               2 
    x25       c18                            504  c29                             59 
    x25       c0                              46  c19                             72 
    x25       c22                             53  c15                              2 
    x25       c9                              36  c23                            974 
    x25       c3                             140  c14                             13 
    x25       c10                             95  c24                            441 
    x25       c2                              97  c25                             86 
    x25       c13                             67  c1                              73 
    x25       c11                             13  c26                            178 
    x25       c28                             81  c12                             37 
    x25       c27                            310 
    x26       c27                             92  c20                            864 
    x26       c12                            496  Obj                            200 
    x26       c5                              59  c26                            724 
    x26       c17                            571  c11                            295 
    x26       c1                             504  c8                               7 
    x26       c6                             468  c16                            194 
    x26       c28                            984  c21                            674 
    x26       c0                             608  c25                            594 
    x26       c13                            628  c4                               9 
    x26       c2                              33  c15                            201 
    x26       c19                            688  c22                             19 
    x26       c9                              45  c24                             92 
    x26       c29                             76  c10                            927 
    x26       c14                            254  c7                              12 
    x26       c3                             714  c18                            616 
    x26       c23                            950 
    x27       c18                             14  c23                              9 
    x27       c14                            788  c7                             990 
    x27       c29                             83  c10                             62 
    x27       c3                             828  c9                              12 
    x27       c24                              6  c22                            554 
    x27       c19                             92  c2                              94 
    x27       c15                              2  c13                             23 
    x27       c25                            790  c4                              36 
    x27       c21                             42  c28                            284 
    x27       c1                               5  c16                             37 
    x27       c8                              57  c6                               3 
    x27       c11                             65  c26                            610 
    x27       c5                              37  Obj                             29 
    x27       c12                             29  c0                              25 
    x27       c17                             42  c27                            888 
    x27       c20                             55 
    x28       c20                            198  c23                            759 
    x28       c29                             47  c7                             140 
    x28       c14                            760  c3                              97 
    x28       c0                              23  c10                             51 
    x28       c19                             93  c17                             21 
    x28       c24                            800  c9                              62 
    x28       c2                              42  c22                              1 
    x28       c18                            824  c5                              75 
    x28       c15                            924  c13                             83 
    x28       c12                            210  c25                             56 
    x28       c4                             150  c8                             174 
    x28       c28                            384  c1                              86 
    x28       c6                              81  c27                             77 
    x28       c21                              5  Obj                             91 
    x28       c11                            408  c26                            818 
    x28       c16                             66 
    x29       c4                              18  c24                              7 
    x29       c16                            855  c26                             46 
    x29       c17                             47  c23                              5 
    x29       c20                            598  c11                            211 
    x29       Obj                              6  c2                             864 
    x29       c21                            810  c19                              8 
    x29       c29                              7  c22                             49 
    x29       c6                               5  c7                              39 
    x29       c5                              36  c1                              61 
    x29       c18                            641  c10                            476 
    x29       c15                            866  c14                            542 
    x29       c27                            444  c8                              65 
    x29       c0                              41  c28                             52 
    x29       c13                            943  c3                              27 
    x29       c12                            930  c25                              2 
    x29       c9                              62 
    x30       c23                             29  c4                             586 
    x30       c11                             11  c18                            374 
    x30       c7                             876  c25                             43 
    x30       c13                            129  c3                             571 
    x30       c9                             790  c19                            214 
    x30       c27                            734  c15                            501 
    x30       c14                            339  Obj                             27 
    x30       c29                             35  c10                            716 
    x30       c1                              67  c8                             320 
    x30       c5                             105  c6                             509 
    x30       c22                             56  c21                              9 
    x30       c0                             667  c20                             73 
    x30       c2                             464  c26                            964 
    x30       c28                            804  c16                             71 
    x30       c12                            653  c17                            462 
    x30       c24                             93 
    x31       c7                             813  c24                              9 
    x31       c27                             59  c28                            750 
    x31       c2                             931  c5                              47 
    x31       c22                            418  c10                             17 
    x31       c17                             51  c15                             57 
    x31       c29                             52  c3                             449 
    x31       c13                            950  c0                             123 
    x31       c18                              2  c4                             996 
    x31       c25                             83  c9                             920 
    x31       c19                             77  c11                             49 
    x31       c1                             255  Obj                             52 
    x31       c14                             34  c12                             51 
    x31       c20                             15  c21                             49 
    x31       c26                            194  c8                             143 
    x31       c6                             845  c16                             95 
    x31       c23                             63 
    x32       c23                             55  c13                            170 
    x32       c10                             37  c11                            844 
    x32       c20                             95  c18                            478 
    x32       c22                             13  c17                             96 
    x32       c0                             805  c4                             519 
    x32       c2                              33  c25                            520 
    x32       c12                             35  Obj                              6 
    x32       c1                             118  c14                             13 
    x32       c24                            254  c26                             97 
    x32       c7                             559  c28                             83 
    x32       c27                             27  c8                             382 
    x32       c16                              7  c5                             760 
    x32       c29                             71  c6                             293 
    x32       c21                            274  c15                              3 
    x32       c19                             66  c9                             390 
    x32       c3                             602 
    x33       c19                              2  c5                              15 
    x33       c9                              44  c21                             25 
    x33       c29                              7  c2                             350 
    x33       c16                            408  c28                             87 
    x33       Obj                             51  c26                             59 
    x33       c24                             22  c8                             566 
    x33       c14                            230  c1                             332 
    x33       c12                             43  c25                            864 
    x33       c17                            338  c6                             700 
    x33       c4                             719  c0                             116 
    x33       c22                            948  c20                             36 
    x33       c7                             952  c18                             36 
    x33       c27                            898  c11                             11 
    x33       c10                            868  c23                             45 
    x33       c13                             67  c15                              2 
    x33       c3                             789 
    x34       Obj                             55  c26                            634 
    x34       c16                            464  c13                            613 
    x34       c12                            393  c10                            267 
    x34       c15                            279  c2                              15 
    x34       c11                            417  c23                             93 
    x34       c9                              62  c8                             878 
    x34       c3                              15  c7                             640 
    x34       c14                            327  c29                             32 
    x34       c22                             56  c5                             190 
    x34       c20                            814  c27                             59 
    x34       c25                             92  c17                            228 
    x34       c28                            174  c4                             320 
    x34       c6                              75  c18                            496 
    x34       c21                            298  c19                            384 
    x34       c24                            930  c0                              19 
    x34       c1                              97 
    x35       c1                             370  c24                            744 
    x35       c19                             59  c27                             33 
    x35       c0                              26  c21                              9 
    x35       c6                              59  c18                            754 
    x35       c4                              13  c25                             31 
    x35       c17                             93  c20                             45 
    x35       c14                             65  c3                              85 
    x35       c5                               3  c22                             19 
    x35       c28                             99  c29                             87 
    x35       Obj                             72  c23                             56 
    x35       c12                              2  c7                              59 
    x35       c8                             678  c15                              5 
    x35       c2                              22  c10                             91 
    x35       c11                            570  c9                              83 
    x35       c16                             41  c13                            608 
    x35       c26                             21 
    x36       c26                            630  c9                              27 
    x36       c2                               9  c12                            834 
    x36       c3                              27  c16                             56 
    x36       c28                             23  Obj                             13 
    x36       c14                             87  c19                             26 
    x36       c10                              2  c18                            848 
    x36       c0                             760  c21                             42 
    x36       c24                              7  c1                              32 
    x36       c4                             654  c25                             71 
    x36       c20                            770  c27                            418 
    x36       c22                             65  c5                              17 
    x36       c23                            580  c17                            690 
    x36       c8                             284  c15                            148 
    x36       c7                             290  c11                             43 
    x36       c13                             27  c29                             27 
    x36       c6                               9 
    x37       c0                              81  c26                            969 
    x37       c1                              23  c25                            845 
    x37       c24                            475  c2                              82 
    x37       c23                              6  c3                              11 
    x37       c28                            482  c22                            154 
    x37       c27                            935  c4                             408 
    x37       c21                            363  c20                            644 
    x37       c5                             328  c19                             75 
    x37       c6                              58  c18                             75 
    x37       c17                             56  c7                             644 
    x37       c16                            564  c8                              39 
    x37       c15                             86  c9                              43 
    x37       c14                             72  c13                            554 
    x37       Obj                              6  c10                            234 
    x37       c12                              1  c11                             39 
    x37       c29                            680 
    x38       Obj                             65  c29                             52 
    x38       c11                             16  c27                             73 
    x38       c0                             699  c12                            418 
    x38       c10                            444  c26                             47 
    x38       c1                             165  c13                            730 
    x38       c25                            174  c14                             71 
    x38       c9                             574  c24                            498 
    x38       c2                             358  c15                             91 
    x38       c8                             755  c23                             93 
    x38       c3                             778  c16                            488 
    x38       c28                              7  c7                             232 
    x38       c17                             89  c22                             99 
    x38       c18                            330  c21                             47 
    x38       c4                              70  c6                              67 
    x38       c19                             15  c20                            634 
    x38       c5                             210 
    x39       c5                             294  c19                             81 
    x39       c20                            334  c4                              66 
    x39       c6                             734  c18                             76 
    x39       c21                            158  c17                             99 
    x39       c22                            363  c28                            232 
    x39       c7                              76  c16                            508 
    x39       c3                              19  c23                            452 
    x39       c8                              90  c15                             93 
    x39       c2                               6  c24                            252 
    x39       c9                              86  c14                             23 
    x39       c1                              75  c13                            710 
    x39       c25                            780  c26                             75 
    x39       c10                             45  c12                             36 
    x39       c0                              27  c27                            272 
    x39       c11                            430  Obj                             95 
    x39       c29                            990 
    INTEND    'MARKER'                            'INTEND'                           
RHS
    RHS       c0                            3317  c1                            1880 
    RHS       c2                            2740  c3                            4310 
    RHS       c4                            2681  c5                            3375 
    RHS       c6                            4704  c7                            3031 
    RHS       c8                            3115  c9                            2878 
    RHS       c10                           2609  c11                           3321 
    RHS       c12                           4142  c13                           4670 
    RHS       c14                           2130  c15                           3323 
    RHS       c16                           4766  c17                           2590 
    RHS       c18                           3573  c19                           2888 
    RHS       c20                           3578  c21                           3478 
    RHS       c22                           4189  c23                           1748 
    RHS       c24                           2039  c25                           2660 
    RHS       c26                           4645  c27                           3578 
    RHS       c28                           4418  c29                           2211 
BOUNDS
 BV Bound     x0                                 
 BV Bound     x1                                 
 BV Bound     x2                                 
 BV Bound     x3                                 
 BV Bound     x4                                 
 BV Bound     x5                                 
 BV Bound     x6                                 
 BV Bound     x7                                 
 BV Bound     x8                                 
 BV Bound     x9                                 
 BV Bound     x10                                
 BV Bound     x11                                
 BV Bound     x12                                
 BV Bound     x13                                
 BV Bound     x14                                
 BV Bound     x15                                
 BV Bound     x16                                
 BV Bound     x17                                
 BV Bound     x18                                
 BV Bound     x19                                
 BV Bound     x20                                
 BV Bound     x21                                
 BV Bound     x22                                
 BV Bound     x23                                
 BV Bound     x24                                
 BV Bound     x25                                
 BV Bound     x26                                
 BV Bound     x27                                
 BV Bound     x28                                
 BV Bound     x29                                
 BV Bound     x30                                
 BV Bound     x31                                
 BV Bound     x32                                
 BV Bound     x33                                
 BV Bound     x34                                
 BV Bound     x35                                
 BV Bound     x36                                
 BV Bound     x37                                
 BV Bound     x38                                
 BV Bound     x39                                
ENDATA