* SCIP STATISTICS
*   Problem name     : mknap_45
*   Variables        : 37 (37 binary, 0 integer, 0 implicit integer, 0 continuous)
*   Constraints      : 30
NAME          mknap_45
OBJSENSE
  MAX
ROWS
 N  Obj 
 L  c0 
 L  c1 
 L  c2 
 L  c3 
 L  c4 
 L  c5 
 L  c6 
 L  c7 
 L  c8 
 L  c9 
 L  c10 
 L  c11 
 L  c12 
 L  c13 
 L  c14 
 L  c15 
 L  c16 
 L  c17 
 L  c18 
 L  c19 
 L  c20 
 L  c21 
 L  c22 
 L  c23 
 L  c24 
 L  c25 
 L  c26 
 L  c27 
 L  c28 
 L  c29 
COLUMNS
    INTSTART  'MARKER'                            'INTORG'                           
    x0        Obj                             47  c10                             85 
    x0        c24                             25  c18                             97 
    x0        c16                            934  c2                             283 
    x0        c4                             830  c26                             42 
    x0        c27                             57  c20                             76 
    x0        c7                             854  c23                             91 
    x0        c15                            110  c8                             206 
    x0        c1                             435  c5                             234 
    x0        c11                            948  c12                              1 
    x0        c13                             89  c28                             12 
    x0        c19                             75  c25                             87 
    x0        c3                             950  c22                            864 
    x0        c17                             15  c6                             796 
    x0        c9                             798  c0                             785 
    x0        c14                             66  c21                             43 
    x0        c29                              7 
    x1        c29                             55  c24                             19 
    x1        c10                             51  c23                             12 
    x1        c21                            780  c27                             13 
    x1        c15                            900  c0                             774 
    x1        c20                             62  Obj                             77 
    x1        c9                              51  c8                              36 
    x1        c3                             114  c7                              27 
    x1        c6                              37  c14                            654 
    x1        c1                              67  c18                            290 
    x1        c4                             720  c22                             75 
    x1        c5                              53  c16                             26 
    x1        c25                             36  c2                              42 
    x1        c17                              2  c19                              7 
    x1        c12                             63  c11                             89 
    x1        c26                             59  c13                              6 
    x1        c28                             93 
    x2        c28                             63  c26                             33 
    x2        c11                              5  c25                             35 
    x2        c13                            218  c19                             22 
    x2        c2                             644  c5                             983 
    x2        c18                             72  c12                              3 
    x2        c22                             99  c6                             619 
    x2        c4                             809  c14                             46 
    x2        c1                             792  c20                            464 
    x2        c17                            630  c16                             96 
    x2        c8                             650  c23                            130 
    x2        Obj                            110  c21                             56 
    x2        c0                             818  c9                             310 
    x2        c15                             99  c10                             23 
    x2        c24                            864  c3                             716 
    x2        c29                              9  c7                             206 
    x2        c27                            224 
    x3        c27                            120  c15                             51 
    x3        c6                              93  c18                            844 
    x3        c23                            481  c16                             37 
    x3        c24                            535  c8                             210 
    x3        c17                             61  c1                              99 
    x3        c4                              31  c12                             63 
    x3        c22                            554  c20                            292 
    x3        c5                               3  c26                            671 
    x3        c28                            490  c25                            843 
    x3        c3                             668  c11                             81 
    x3        c19                             45  c2                              96 
    x3        c9                              21  c13                             36 
    x3        c14                             69  Obj                             67 
    x3        c21                            588  c0                              56 
    x3        c10                             26  c29                            264 
    x3        c7                              57 
    x4        c10                            444  c2                             358 
    x4        c26                             47  c4                              70 
    x4        c8                             755  c23                             93 
    x4        c16                            488  c27                             73 
    x4        c15                             91  c18                            330 
    x4        c24                            498  c17                             89 
    x4        c22                             99  c1                             165 
    x4        c14                             71  c25                            174 
    x4        c28                              7  c5                             210 
    x4        c11                             16  c19                             15 
    x4        c7                             232  c21                             47 
    x4        c0                             699  c29                             52 
    x4        c13                            730  c12                            418 
    x4        c6                              67  c20                            634 
    x4        c3                             778  Obj                             65 
    x4        c9                             574 
    x5        c7                              87  c21                             86 
    x5        c19                            148  c3                              43 
    x5        c9                              43  c11                            491 
    x5        c0                              22  c5                              37 
    x5        c25                             22  c28                             63 
    x5        c14                            769  c20                            340 
    x5        Obj                              3  c1                             794 
    x5        c22                            800  c24                              3 
    x5        c13                            321  c18                            570 
    x5        c29                             35  c16                             89 
    x5        c15                            150  c17                            638 
    x5        c27                              7  c23                             26 
    x5        c12                            402  c8                             520 
    x5        c6                              23  c2                              49 
    x5        c4                              82  c10                            426 
    x5        c26                            364 
    x6        c26                            854  c7                              21 
    x6        c6                              47  c19                             91 
    x6        c3                              55  c4                             688 
    x6        c11                              6  c2                              57 
    x6        c12                            664  c9                              25 
    x6        c8                              33  c0                              42 
    x6        c10                             92  c28                            870 
    x6        c5                             704  c23                            624 
    x6        c20                            278  c25                             76 
    x6        c14                             82  c15                             22 
    x6        c17                             61  c13                             22 
    x6        c29                             92  c16                              6 
    x6        c27                             92  c1                              53 
    x6        c24                             27  c18                             13 
    x6        c22                              6  Obj                              6 
    x6        c21                             23 
    x7        c18                             22  c16                            695 
    x7        c24                            931  c1                             268 
    x7        c27                             79  Obj                             39 
    x7        c14                            178  c15                            132 
    x7        c25                            569  c29                            310 
    x7        c17                            287  c12                            379 
    x7        c5                             678  c13                            910 
    x7        c9                             150  c10                            529 
    x7        c28                            623  c2                             587 
    x7        c8                             827  c4                             241 
    x7        c6                             306  c11                            939 
    x7        c0                             465  c23                            171 
    x7        c19                            840  c20                            254 
    x7        c7                             513  c26                            382 
    x7        c3                             936  c22                            543 
    x7        c21                            175 
    x8        c21                            518  c0                              21 
    x8        c7                              15  c11                             79 
    x8        c28                             52  c18                             65 
    x8        c13                             16  c5                              42 
    x8        c27                             93  c22                             85 
    x8        c1                             234  c14                             15 
    x8        c15                            154  c29                             65 
    x8        c10                             66  c8                             100 
    x8        c4                              82  c26                            570 
    x8        c23                             13  c6                             744 
    x8        c17                             62  c19                             69 
    x8        c12                            458  Obj                             33 
    x8        c2                             978  c16                             82 
    x8        c24                             21  c25                             39 
    x8        c9                              42  c3                              56 
    x8        c20                            818 
    x9        c20                             37  c4                             860 
    x9        c8                             818  c3                              97 
    x9        c10                            554  c12                            222 
    x9        Obj                             63  c2                              59 
    x9        c9                              76  c22                              3 
    x9        c5                              91  c18                            236 
    x9        c29                             37  c24                             11 
    x9        c15                            663  c19                            224 
    x9        c23                            718  c6                              67 
    x9        c13                            622  c14                            586 
    x9        c1                              65  c21                            218 
    x9        c27                             57  c16                            541 
    x9        c25                             76  c0                              57 
    x9        c7                              13  c28                             99 
    x9        c17                            958  c11                            595 
    x9        c26                             26 
    x10       c25                             77  c11                            414 
    x10       c0                              76  c28                             87 
    x10       c7                              13  c15                             72 
    x10       c27                              9  c21                            400 
    x10       c23                             79  c5                             290 
    x10       c16                            710  c13                             58 
    x10       c14                             46  c6                             978 
    x10       c19                             96  c18                             31 
    x10       c29                             21  c24                              7 
    x10       c9                              59  c22                             55 
    x10       c2                              56  c1                              27 
    x10       Obj                              6  c8                             538 
    x10       c10                             97  c12                             35 
    x10       c3                              26  c26                              2 
    x10       c20                            928  c17                             25 
    x10       c4                               7 
    x11       c4                              99  c26                            654 
    x11       c10                             93  c8                              85 
    x11       c1                              97  c22                             45 
    x11       c2                             584  c18                            780 
    x11       c14                             59  c5                              11 
    x11       c23                            608  c27                             22 
    x11       c15                             75  c25                            850 
    x11       c11                            288  c17                             86 
    x11       c0                              62  c7                             420 
    x11       c28                            634  c21                              1 
    x11       c13                            530  c16                             66 
    x11       c19                             45  c29                             52 
    x11       c24                             27  c9                              45 
    x11       Obj                             21  c6                              32 
    x11       c12                             62  c20                             53 
    x11       c3                               7 
    x12       c3                              77  c14                             22 
    x12       c22                             69  c24                             73 
    x12       c1                              64  c12                            508 
    x12       c20                            888  c18                             27 
    x12       c6                             214  Obj                             56 
    x12       c9                              72  c5                              45 
    x12       c27                              7  c10                             85 
    x12       c0                              42  c16                             46 
    x12       c29                             66  c11                            910 
    x12       c26                             95  c23                              3 
    x12       c17                            198  c4                              81 
    x12       c25                             96  c8                             894 
    x12       c19                             42  c2                              82 
    x12       c28                             39  c7                              32 
    x12       c13                             93  c21                            108 
    x12       c15                             21 
    x13       c15                              2  c13                             23 
    x13       c21                             42  c20                             55 
    x13       c2                              94  c28                            284 
    x13       c7                             990  c8                              57 
    x13       c25                            790  c17                             42 
    x13       c4                              36  c11                             65 
    x13       c23                              9  c19                             92 
    x13       c16                             37  c0                              25 
    x13       c29                             83  c10                             62 
    x13       c27                            888  Obj                             29 
    x13       c26                            610  c5                              37 
    x13       c9                              12  c18                             14 
    x13       c6                               3  c1                               5 
    x13       c24                              6  c22                            554 
    x13       c12                             29  c3                             828 
    x13       c14                            788 
    x14       c14                            700  c12                            804 
    x14       c1                             908  c16                             26 
    x14       c18                             83  c24                              2 
    x14       c6                              53  c26                            924 
    x14       c5                              56  c3                              28 
    x14       c10                             19  c27                             13 
    x14       c9                              73  Obj                             69 
    x14       c29                             96  c19                             56 
    x14       c0                              97  c22                             77 
    x14       c23                             33  c21                             86 
    x14       c25                             42  c7                               1 
    x14       c28                            338  c4                              85 
    x14       c11                             85  c2                              37 
    x14       c8                              39  c20                              3 
    x14       c15                            968  c17                             70 
    x14       c13                             13 
    x15       c13                             92  c17                             62 
    x15       c15                            628  c20                             29 
    x15       c8                             218  c11                            270 
    x15       c2                              23  c25                            718 
    x15       c4                              12  c28                              1 
    x15       c7                               7  c22                            704 
    x15       c0                              26  c23                             92 
    x15       c9                               7  c12                            338 
    x15       c21                             93  c29                             73 
    x15       Obj                             61  c5                              93 
    x15       c27                             85  c3                              23 
    x15       c19                             63  c10                             99 
    x15       c16                             39  c26                             89 
    x15       c6                             218  c24                            800 
    x15       c18                              6  c1                              21 
    x15       c14                              3 
    x16       c6                             303  c12                             21 
    x16       c0                              20  c27                             72 
    x16       c28                             49  c1                              81 
    x16       c26                             21  c2                             931 
    x16       c25                              8  c24                             36 
    x16       c3                             973  c23                            714 
    x16       c4                             868  c22                            670 
    x16       c5                             581  c21                             94 
    x16       c20                             83  c19                             33 
    x16       c7                             624  c18                             16 
    x16       c8                              12  Obj                             85 
    x16       c29                             31  c17                             73 
    x16       c16                             53  c9                             860 
    x16       c15                             79  c10                             99 
    x16       c14                            624  c11                             72 
    x16       c13                            138 
    x17       c12                            930  c19                              8 
    x17       c22                             49  c15                            866 
    x17       c4                              18  c29                              7 
    x17       c16                            855  c0                              41 
    x17       c13                            943  c26                             46 
    x17       c5                              36  c25                              2 
    x17       Obj                              6  c23                              5 
    x17       c10                            476  c17                             47 
    x17       c20                            598  c7                              39 
    x17       c21                            810  c2                             864 
    x17       c8                              65  c24                              7 
    x17       c18                            641  c3                              27 
    x17       c9                              62  c14                            542 
    x17       c6                               5  c1                              61 
    x17       c28                             52  c27                            444 
    x17       c11                            211 
    x18       c21                            718  c3                              75 
    x18       c9                              37  c19                            970 
    x18       c27                            538  c11                            167 
    x18       c12                            720  c22                             63 
    x18       c15                            846  c16                            268 
    x18       c6                              22  c1                              18 
    x18       c4                              49  c23                            930 
    x18       Obj                             47  c14                            343 
    x18       c13                            189  c7                               2 
    x18       c25                            378  c18                            482 
    x18       c26                             87  c10                            604 
    x18       c8                               7  c29                             21 
    x18       c24                            130  c28                              6 
    x18       c20                             60  c5                              32 
    x18       c17                            232  c0                              75 
    x18       c2                              22 
    x19       c3                             140  c2                              97 
    x19       c21                             76  c25                             86 
    x19       c17                            464  c0                              46 
    x19       c28                             81  c29                             59 
    x19       c10                             95  c18                            504 
    x19       c20                             32  c26                            178 
    x19       c24                            441  c13                             67 
    x19       c7                              39  c14                             13 
    x19       c8                              16  c5                               2 
    x19       c1                              73  c6                              31 
    x19       c9                              36  c11                             13 
    x19       c15                              2  c22                             53 
    x19       c4                               2  c12                             37 
    x19       c23                            974  c19                             72 
    x19       c27                            310  c16                             95 
    x19       Obj                             76 
    x20       c4                             740  c28                             86 
    x20       Obj                             47  c19                              2 
    x20       c24                            248  c15                              6 
    x20       c22                            214  c8                              46 
    x20       c10                              7  c7                             604 
    x20       c2                              55  c25                            344 
    x20       c21                             96  c26                             42 
    x20       c18                            554  c1                              13 
    x20       c6                             884  c14                             21 
    x20       c9                              52  c12                            750 
    x20       c27                            200  c5                              22 
    x20       c3                             430  c29                             79 
    x20       c0                             834  c13                             66 
    x20       c11                              6  c20                             35 
    x20       c23                             41  c16                              5 
    x20       c17                            268 
    x21       c23                             45  c20                             36 
    x21       c16                            408  c9                              44 
    x21       c11                             11  Obj                             51 
    x21       c13                             67  c22                            948 
    x21       c25                            864  c2                             350 
    x21       c0                             116  c3                             789 
    x21       c7                             952  c29                              7 
    x21       c5                              15  c27                            898 
    x21       c14                            230  c6                             700 
    x21       c1                             332  c4                             719 
    x21       c28                             87  c18                             36 
    x21       c24                             22  c17                            338 
    x21       c15                              2  c19                              2 
    x21       c26                             59  c21                             25 
    x21       c8                             566  c10                            868 
    x21       c12                             43 
    x22       c21                              6  c1                              86 
    x22       c10                            760  c8                              92 
    x22       c19                             83  c15                             22 
    x22       c17                             95  c18                             47 
    x22       c24                             86  c26                            918 
    x22       c4                              72  c6                              36 
    x22       c12                             96  c14                             51 
    x22       c28                             52  c7                              96 
    x22       c27                             12  c29                              2 
    x22       c25                             17  c3                             590 
    x22       c5                              57  c0                              42 
    x22       c2                             348  c13                            440 
    x22       Obj                              7  c9                              45 
    x22       c11                            904  c22                            718 
    x22       c20                             69  c16                             88 
    x22       c23                             36 
    x23       c23                             16  c12                            846 
    x23       c5                             503  Obj                             53 
    x23       c20                             46  c10                            580 
    x23       c21                             50  c3                             297 
    x23       c29                             15  c26                             96 
    x23       c11                            994  c19                            832 
    x23       c17                            515  c18                            480 
    x23       c1                             377  c13                             62 
    x23       c8                             944  c15                            497 
    x23       c6                             724  c24                             79 
    x23       c4                             221  c0                             979 
    x23       c28                             61  c25                             62 
    x23       c22                             67  c14                            882 
    x23       c9                             560  c7                             372 
    x23       c16                             56  c27                             79 
    x23       c2                             873 
    x24       c23                              6  c2                              82 
    x24       c16                            564  c5                             328 
    x24       c28                            482  c9                              43 
    x24       c27                            935  c22                            154 
    x24       c25                            845  c14                             72 
    x24       c0                              81  c24                            475 
    x24       c4                             408  c13                            554 
    x24       c6                              58  c15                             86 
    x24       c8                              39  c1                              23 
    x24       c18                             75  c17                             56 
    x24       c19                             75  c26                            969 
    x24       c12                              1  c11                             39 
    x24       Obj                              6  c21                            363 
    x24       c3                              11  c29                            680 
    x24       c7                             644  c10                            234 
    x24       c20                            644 
    x25       c29                             35  c21                             19 
    x25       c4                              61  c19                            624 
    x25       c26                             65  c6                              71 
    x25       c15                            132  c1                              73 
    x25       c14                            967  c25                             17 
    x25       c9                              45  c10                             11 
    x25       c16                            869  c28                             23 
    x25       c27                            468  Obj                              2 
    x25       c0                              47  c22                             47 
    x25       c24                              9  c13                            423 
    x25       c8                              16  c18                            267 
    x25       c17                            494  c12                            553 
    x25       c11                            410  c7                              33 
    x25       c3                              47  c20                             33 
    x25       c23                             53  c2                              36 
    x25       c5                             698 
    x26       c15                             57  c11                             49 
    x26       c1                             255  c13                            950 
    x26       c29                             52  c28                            750 
    x26       c19                             77  c3                             449 
    x26       c4                             996  c0                             123 
    x26       c26                            194  c17                             51 
    x26       c8                             143  c22                            418 
    x26       c25                             83  c5                              47 
    x26       c14                             34  c9                             920 
    x26       c20                             15  c16                             95 
    x26       c27                             59  Obj                             52 
    x26       c23                             63  c6                             845 
    x26       c24                              9  c10                             17 
    x26       c18                              2  c21                             49 
    x26       c2                             931  c12                             51 
    x26       c7                             813 
    x27       c0                             524  c2                              33 
    x27       c29                             53  c7                              16 
    x27       c21                             56  c12                              7 
    x27       c24                              2  c18                             62 
    x27       c16                             89  c10                             75 
    x27       c6                             504  c27                             91 
    x27       c20                             14  c23                            359 
    x27       c19                             89  c9                              16 
    x27       c14                            748  c5                             978 
    x27       c25                            640  c22                             86 
    x27       c8                              53  c26                            644 
    x27       c17                             83  c15                            964 
    x27       c1                              16  c4                             638 
    x27       c3                              51  Obj                             82 
    x27       c13                             59  c11                             95 
    x27       c28                            674 
    x28       c12                            210  c13                             83 
    x28       c4                             150  c1                              86 
    x28       Obj                             91  c28                            384 
    x28       c15                            924  c17                             21 
    x28       c27                             77  c26                            818 
    x28       c5                              75  c22                              1 
    x28       c23                            759  c25                             56 
    x28       c20                            198  c14                            760 
    x28       c8                             174  c9                              62 
    x28       c11                            408  c6                              81 
    x28       c7                             140  c10                             51 
    x28       c29                             47  c18                            824 
    x28       c0                              23  c24                            800 
    x28       c21                              5  c16                             66 
    x28       c3                              97  c19                             93 
    x28       c2                              42 
    x29       c19                             65  c2                              71 
    x29       c24                            694  c3                              61 
    x29       c16                             82  c0                              53 
    x29       c21                             63  c10                             96 
    x29       c18                             97  c11                            430 
    x29       c7                             644  Obj                             63 
    x29       c12                             75  c8                              27 
    x29       c9                              99  c29                             86 
    x29       c14                             83  c22                            674 
    x29       c23                             13  c26                            804 
    x29       c5                              41  c25                             89 
    x29       c27                            920  c15                            620 
    x29       c28                            114  c4                              72 
    x29       c13                             36  c1                             758 
    x29       c6                              96  c20                             42 
    x29       c17                            174 
    x30       c1                              67  c13                            129 
    x30       c27                            734  c5                             105 
    x30       c29                             35  c17                            462 
    x30       c12                            653  c19                            214 
    x30       c0                             667  c10                            716 
    x30       c21                              9  Obj                             27 
    x30       c26                            964  c4                             586 
    x30       c14                            339  c11                             11 
    x30       c23                             29  c9                             790 
    x30       c6                             509  c8                             320 
    x30       c20                             73  c15                            501 
    x30       c7                             876  c25                             43 
    x30       c3                             571  c24                             93 
    x30       c22                             56  c18                            374 
    x30       c28                            804  c16                             71 
    x30       c2                             464 
    x31       c10                              2  c19                             26 
    x31       c2                               9  c0                             760 
    x31       c3                              27  c21                             42 
    x31       c17                            690  c20                            770 
    x31       c12                            834  Obj                             13 
    x31       c5                              17  c26                            630 
    x31       c16                             56  c4                             654 
    x31       c27                            418  c28                             23 
    x31       c14                             87  c18                            848 
    x31       c23                            580  c9                              27 
    x31       c11                             43  c6                               9 
    x31       c13                             27  c8                             284 
    x31       c29                             27  c1                              32 
    x31       c7                             290  c15                            148 
    x31       c22                             65  c24                              7 
    x31       c25                             71 
    x32       c10                             37  c18                            478 
    x32       c25                            520  c19                             66 
    x32       c5                             760  c22                             13 
    x32       c15                              3  c2                              33 
    x32       c8                             382  c0                             805 
    x32       Obj                              6  c29                             71 
    x32       c1                             118  c3                             602 
    x32       c13                            170  c21                            274 
    x32       c20                             95  c6                             293 
    x32       c17                             96  c7                             559 
    x32       c28                             83  c26                             97 
    x32       c11                            844  c9                             390 
    x32       c16                              7  c4                             519 
    x32       c23                             55  c12                             35 
    x32       c27                             27  c24                            254 
    x32       c14                             13 
    x33       c14                            156  c24                            996 
    x33       c11                            703  c5                             719 
    x33       c27                            185  c4                             112 
    x33       c23                            418  c9                             968 
    x33       c7                             460  c26                            356 
    x33       c17                            585  c16                            398 
    x33       c28                            704  c20                            648 
    x33       c6                              71  c3                             264 
    x33       c21                            534  c22                              1 
    x33       c15                             10  c2                             983 
    x33       c1                             266  c19                            660 
    x33       c0                             690  c12                            184 
    x33       Obj                             72  c10                            202 
    x33       c29                            608  c18                            134 
    x33       c25                            629  c8                             721 
    x33       c13                            790 
    x34       c7                             640  c10                            267 
    x34       c0                              19  c19                            384 
    x34       c2                              15  c29                             32 
    x34       c21                            298  c13                            613 
    x34       c5                             190  c23                             93 
    x34       c28                            174  c4                             320 
    x34       c26                            634  c11                            417 
    x34       c14                            327  c9                              62 
    x34       c27                             59  c1                              97 
    x34       c18                            496  c25                             92 
    x34       c12                            393  c15                            279 
    x34       c22                             56  c17                            228 
    x34       c24                            930  c20                            814 
    x34       c16                            464  c8                             878 
    x34       c3                              15  c6                              75 
    x34       Obj                             55 
    x35       Obj                             72  c29                             87 
    x35       c12                              2  c27                             33 
    x35       c0                              26  c11                            570 
    x35       c13                            608  c26                             21 
    x35       c1                             370  c10                             91 
    x35       c14                             65  c25                             31 
    x35       c9                              83  c24                            744 
    x35       c2                              22  c15                              5 
    x35       c8                             678  c23                             56 
    x35       c3                              85  c16                             41 
    x35       c17                             93  c22                             19 
    x35       c4                              13  c28                             99 
    x35       c7                              59  c18                            754 
    x35       c6                              59  c21                              9 
    x35       c19                             59  c20                             45 
    x35       c5                               3 
    x36       c5                             891  c19                             63 
    x36       c20                            727  c21                            751 
    x36       c6                             916  c18                             47 
    x36       c4                             777  c28                            911 
    x36       c7                               8  c17                             48 
    x36       c22                            635  c16                            370 
    x36       c3                              80  c23                            629 
    x36       c8                             318  c15                             52 
    x36       c2                             475  c24                             45 
    x36       c9                             368  c14                            524 
    x36       c25                            365  c1                             834 
    x36       c10                             69  c13                            540 
    x36       c26                            812  c0                             646 
    x36       c12                              5  c27                            591 
    x36       c11                            134  Obj                             31 
    x36       c29                            844 
    INTEND    'MARKER'                            'INTEND'                           
RHS
    RHS       c0                            5875  c1                            4351 
    RHS       c2                            5221  c3                            7099 
    RHS       c4                            5746  c5                            5560 
    RHS       c6                            6840  c7                            6069 
    RHS       c8                            6333  c9                            5229 
    RHS       c10                           5428  c11                           5824 
    RHS       c12                           7422  c13                           5461 
    RHS       c14                           5047  c15                           6064 
    RHS       c16                           7582  c17                           5220 
    RHS       c18                           6483  c19                           4929 
    RHS       c20                           5909  c21                           5057 
    RHS       c22                           6662  c23                           3514 
    RHS       c24                           4469  c25                           4153 
    RHS       c26                           7077  c27                           6163 
    RHS       c28                           6955  c29                           3373 
BOUNDS
 BV Bound     x0                                 
 BV Bound     x1                                 
 BV Bound     x2                                 
 BV Bound     x3                                 
 BV Bound     x4                                 
 BV Bound     x5                                 
 BV Bound     x6                                 
 BV Bound     x7                                 
 BV Bound     x8                                 
 BV Bound     x9                                 
 BV Bound     x10                                
 BV Bound     x11                                
 BV Bound     x12                                
 BV Bound     x13                                
 BV Bound     x14                                
 BV Bound     x15                                
 BV Bound     x16                                
 BV Bound     x17                                
 BV Bound     x18                                
 BV Bound     x19                                
 BV Bound     x20                                
 BV Bound     x21                                
 BV Bound     x22                                
 BV Bound     x23                                
 BV Bound     x24                                
 BV Bound     x25                                
 BV Bound     x26                                
 BV Bound     x27                                
 BV Bound     x28                                
 BV Bound     x29                                
 BV Bound     x30                                
 BV Bound     x31                                
 BV Bound     x32                                
 BV Bound     x33                                
 BV Bound     x34                                
 BV Bound     x35                                
 BV Bound     x36                                
ENDATA