* SCIP STATISTICS
*   Problem name     : mknap_25
*   Variables        : 100 (100 binary, 0 integer, 0 implicit integer, 0 continuous)
*   Constraints      : 10
NAME          mknap_25
OBJSENSE
  MAX
ROWS
 N  Obj 
 L  c0 
 L  c1 
 L  c2 
 L  c3 
 L  c4 
 L  c5 
 L  c6 
 L  c7 
 L  c8 
 L  c9 
COLUMNS
    INTSTART  'MARKER'                            'INTORG'                           
    x0        Obj                            525  c5                             321 
    x0        c4                              96  c6                              25 
    x0        c3                             131  c7                             585 
    x0        c2                             848  c8                             648 
    x0        c1                             515  c9                             812 
    x0        c0                             133 
    x1        Obj                            686  c5                             298 
    x1        c4                             808  c6                             957 
    x1        c3                              72  c7                             924 
    x1        c2                             909  c8                             646 
    x1        c1                             760  c9                             510 
    x1        c0                             684 
    x2        c9                             915  c5                             139 
    x2        Obj                            565  c3                             205 
    x2        c1                             535  c4                             827 
    x2        c0                             242  c8                             860 
    x2        c7                             210  c2                              12 
    x2        c6                             470 
    x3        c9                             170  c8                             847 
    x3        c2                             622  c1                              34 
    x3        c6                             274  c7                             332 
    x3        c3                             258  Obj                            456 
    x3        c4                             299  c0                             449 
    x3        c5                             995 
    x4        c4                             216  c3                              71 
    x4        c0                             865  c6                             367 
    x4        Obj                            545  c1                             174 
    x4        c7                             227  c2                             506 
    x4        c5                             211  c8                             825 
    x4        c9                             269 
    x5        c8                             473  c3                             935 
    x5        c1                             892  c5                             310 
    x5        c6                             585  c7                             330 
    x5        Obj                            952  c4                             843 
    x5        c0                             164  c9                             363 
    x5        c2                             158 
    x6        Obj                           1000  c3                             457 
    x6        c8                             850  c4                             383 
    x6        c0                             838  c7                             981 
    x6        c5                             200  c9                             880 
    x6        c1                             546  c2                             678 
    x6        c6                             374 
    x7        c9                             186  c5                             964 
    x7        c1                             669  c7                             692 
    x7        c2                             664  c4                             137 
    x7        Obj                           1023  c8                             600 
    x7        c0                             654  c3                             737 
    x7        c6                             263 
    x8        c5                             485  c7                              83 
    x8        c2                             790  c4                             745 
    x8        c1                             484  c6                             792 
    x8        c0                             213  c8                             609 
    x8        Obj                            817  c3                             408 
    x8        c9                             744 
    x9        c9                             781  c4                             197 
    x9        c8                             631  c6                              67 
    x9        c0                             389  Obj                            987 
    x9        c1                             989  c3                             572 
    x9        c7                             761  c5                             229 
    x9        c2                             991 
    x10       c9                             447  c3                              29 
    x10       Obj                            793  c4                             462 
    x10       c8                             588  c6                             649 
    x10       c0                             272  c5                             865 
    x10       c7                             862  c2                             782 
    x10       c1                             841 
    x11       c1                             169  c8                             715 
    x11       c0                             121  c9                             605 
    x11       c2                              50  c7                               4 
    x11       c3                             496  c6                             711 
    x11       c4                             800  c5                             538 
    x11       Obj                            905 
    x12       Obj                            868  c5                             888 
    x12       c3                             724  c1                             707 
    x12       c7                             469  c9                             407 
    x12       c8                             106  c0                             403 
    x12       c6                             627  c2                             506 
    x12       c4                             858 
    x13       c5                             665  c8                             875 
    x13       c3                             748  c7                             862 
    x13       c9                             565  c0                             983 
    x13       c1                            1000  c6                             660 
    x13       c2                             412  c4                             174 
    x13       Obj                           1091 
    x14       Obj                            743  c4                             748 
    x14       c5                              78  c6                             200 
    x14       c7                             785  c1                             568 
    x14       c2                              68  c0                             424 
    x14       c3                             424  c9                             569 
    x14       c8                             316 
    x15       c9                             391  c1                             333 
    x15       c2                             472  c7                             304 
    x15       c6                             509  c8                              42 
    x15       Obj                            587  c3                             859 
    x15       c0                             870  c5                             385 
    x15       c4                             596 
    x16       c3                             479  Obj                            714 
    x16       c5                             105  c9                             293 
    x16       c1                             886  c4                              50 
    x16       c7                             336  c6                             178 
    x16       c0                             431  c8                             830 
    x16       c2                             163 
    x17       c7                             660  c3                             909 
    x17       c9                             809  Obj                            692 
    x17       c4                             948  c2                             410 
    x17       c1                             997  c5                             859 
    x17       c6                             135  c0                              74 
    x17       c8                             999 
    x18       c8                              70  c1                             908 
    x18       c5                             991  c6                             966 
    x18       c0                              81  c3                              38 
    x18       c9                             545  Obj                            853 
    x18       c7                             339  c2                              54 
    x18       c4                             982 
    x19       Obj                            869  c5                             683 
    x19       c8                             728  c0                             738 
    x19       c9                             329  c2                             119 
    x19       c6                             394  c3                             389 
    x19       c4                             785  c7                             611 
    x19       c1                             674 
    x20       c1                             303  c7                             436 
    x20       c3                             967  c4                             932 
    x20       Obj                            714  c9                             513 
    x20       c8                             284  c0                             299 
    x20       c5                             216  c2                             644 
    x20       c6                             314 
    x21       c9                             268  c1                             111 
    x21       c2                              90  c4                             678 
    x21       Obj                            515  c5                             244 
    x21       c0                             126  c6                             231 
    x21       c3                             524  c8                             117 
    x21       c7                             354 
    x22       c8                             382  Obj                            623 
    x22       c0                              69  c1                             585 
    x22       c9                             514  c2                             559 
    x22       c5                             891  c7                             569 
    x22       c4                             779  c3                              32 
    x22       c6                             750 
    x23       c8                             739  c6                             583 
    x23       c0                             686  Obj                            661 
    x23       c9                             147  c1                             148 
    x23       c2                             846  c5                             625 
    x23       c7                             348  c4                             839 
    x23       c3                             344 
    x24       c3                             134  c0                              72 
    x24       c6                             992  c9                             548 
    x24       Obj                            940  c1                             720 
    x24       c7                             693  c2                              87 
    x24       c4                             286  c5                             991 
    x24       c8                             707 
    x25       c9                             834  c0                             634 
    x25       c3                             909  c1                             773 
    x25       c7                              97  c8                             198 
    x25       Obj                           1011  c6                             270 
    x25       c5                             620  c4                             604 
    x25       c2                             321 
    x26       Obj                           1013  c5                             891 
    x26       c9                             609  c2                             236 
    x26       c0                             744  c3                             916 
    x26       c7                             444  c8                             115 
    x26       c4                             352  c1                              87 
    x26       c6                             755 
    x27       c5                             671  c0                             336 
    x27       c3                              32  Obj                            638 
    x27       c7                             823  c6                             426 
    x27       c1                             870  c8                             122 
    x27       c9                             856  c4                             691 
    x27       c2                             317 
    x28       c1                             473  c9                             483 
    x28       Obj                           1003  c7                             554 
    x28       c6                             352  c2                             804 
    x28       c3                             781  c8                              72 
    x28       c0                             916  c4                             160 
    x28       c5                             795 
    x29       c8                             564  c9                             300 
    x29       c7                             366  c6                             533 
    x29       c0                             486  Obj                            759 
    x29       c4                             722  c3                             110 
    x29       c2                             208  c5                             243 
    x29       c1                             283 
    x30       c0                             974  c6                             291 
    x30       c3                             101  c7                             513 
    x30       c1                             563  Obj                            886 
    x30       c4                             756  c8                             249 
    x30       c9                             137  c5                             506 
    x30       c2                             706 
    x31       c7                              73  c4                              98 
    x31       c1                              88  c2                             294 
    x31       c0                             574  Obj                            517 
    x31       c6                             340  c8                             197 
    x31       c3                             114  c5                             730 
    x31       c9                             428 
    x32       c7                             708  c3                             685 
    x32       c4                             989  c6                             677 
    x32       c2                             549  c1                             577 
    x32       c5                              92  c9                             995 
    x32       c8                             935  c0                             183 
    x32       Obj                            841 
    x33       c2                             980  c0                             906 
    x33       c8                             591  c1                             167 
    x33       c3                             907  c9                             736 
    x33       Obj                            946  c4                             713 
    x33       c7                             204  c6                             622 
    x33       c5                             536 
    x34       c4                             736  c6                             786 
    x34       c9                             658  c0                             475 
    x34       c3                             752  c5                             291 
    x34       c7                             777  c2                             226 
    x34       Obj                           1058  c1                             798 
    x34       c8                             722 
    x35       c4                             925  c5                             258 
    x35       c9                              95  c3                             600 
    x35       Obj                            795  c7                             928 
    x35       c8                             454  c2                             310 
    x35       c1                             331  c0                             634 
    x35       c6                             184 
    x36       c6                             511  c2                             197 
    x36       c1                             125  c9                             992 
    x36       c7                             534  c8                             139 
    x36       Obj                            655  c5                             621 
    x36       c4                             354  c3                             245 
    x36       c0                             691 
    x37       c4                             460  c9                             630 
    x37       c8                             258  c6                             962 
    x37       c2                             173  c1                             213 
    x37       Obj                           1086  c5                             829 
    x37       c7                             903  c0                             778 
    x37       c3                             743 
    x38       c0                             255  Obj                            661 
    x38       c2                              96  c4                             997 
    x38       c1                             240  c6                             280 
    x38       c9                             601  c7                             574 
    x38       c8                              51  c5                             280 
    x38       c3                             852 
    x39       c8                              19  c6                             572 
    x39       Obj                            702  c0                             892 
    x39       c5                            1000  c1                              54 
    x39       c7                             574  c2                             586 
    x39       c9                              14  c4                             754 
    x39       c3                             730 
    x40       c3                             882  c9                             507 
    x40       c7                             377  c1                             473 
    x40       c4                             153  c2                             620 
    x40       c6                             264  c0                             966 
    x40       c8                             590  c5                               2 
    x40       Obj                            681 
    x41       Obj                            707  c0                             592 
    x41       c8                             683  c7                             984 
    x41       c4                             402  c1                             690 
    x41       c6                             796  c5                             214 
    x41       c2                             647  c9                             674 
    x41       c3                             287 
    x42       c8                             606  c0                             222 
    x42       c9                             695  c5                             799 
    x42       c7                             272  Obj                            705 
    x42       c3                              71  c6                             579 
    x42       c2                              62  c1                             186 
    x42       c4                             370 
    x43       c1                             440  c8                             528 
    x43       c0                             411  c9                             830 
    x43       c6                             557  c3                             515 
    x43       c4                             888  Obj                           1014 
    x43       c5                             622  c2                             225 
    x43       c7                             877 
    x44       c7                             229  Obj                            823 
    x44       c8                             415  c1                             162 
    x44       c2                              28  c0                              57 
    x44       c9                             711  c3                             194 
    x44       c6                             956  c4                             845 
    x44       c5                             796 
    x45       c5                             150  Obj                            372 
    x45       c1                             520  c2                             402 
    x45       c0                              24  c7                             804 
    x45       c4                             200  c9                             732 
    x45       c8                              93  c3                             543 
    x45       c6                             122 
    x46       c8                             826  c3                             160 
    x46       c6                             819  c5                             818 
    x46       c7                             154  c1                             767 
    x46       c2                             291  c9                             545 
    x46       c0                              72  c4                             948 
    x46       Obj                           1004 
    x47       c3                             881  c1                             388 
    x47       c2                             438  c0                              56 
    x47       c4                              89  c6                             292 
    x47       c9                             535  c8                             167 
    x47       c5                             993  Obj                            563 
    x47       c7                             167 
    x48       c8                             959  Obj                            913 
    x48       c6                             292  c4                             259 
    x48       c2                             656  c9                              91 
    x48       c7                             991  c0                              70 
    x48       c5                             734  c3                             775 
    x48       c1                             143 
    x49       c5                              48  c7                             635 
    x49       c3                             400  c0                               9 
    x49       c1                             126  c8                             406 
    x49       c9                             937  c4                              92 
    x49       c2                             234  Obj                            420 
    x49       c6                             375 
    x50       c3                             993  c8                             764 
    x50       c9                             562  c4                             172 
    x50       c2                              19  c7                            1000 
    x50       c5                             138  c6                             143 
    x50       Obj                            582  c0                             933 
    x50       c1                             616 
    x51       c6                             786  c8                             128 
    x51       c2                             530  c7                              60 
    x51       c4                             837  c1                             626 
    x51       c3                             882  c0                             248 
    x51       c9                             266  c5                             864 
    x51       Obj                           1013 
    x52       c3                             932  c8                             145 
    x52       c5                             388  c2                             297 
    x52       c7                             845  c6                             322 
    x52       c1                             603  c4                             636 
    x52       c0                             956  c9                             652 
    x52       Obj                            913 
    x53       c5                             798  c2                             622 
    x53       c6                             314  c0                             177 
    x53       c7                             561  c1                             780 
    x53       c4                              74  c3                              72 
    x53       Obj                            767  c9                               7 
    x53       c8                              55 
    x54       c1                             345  c8                             627 
    x54       c3                              16  c6                             234 
    x54       c5                             500  c0                             350 
    x54       c9                             554  Obj                            639 
    x54       c7                             997  c4                             255 
    x54       c2                             613 
    x55       c5                             137  c4                             402 
    x55       c9                             427  Obj                            937 
    x55       c6                             972  c0                             928 
    x55       c7                             434  c1                              52 
    x55       c2                             195  c8                             958 
    x55       c3                             167 
    x56       Obj                            726  c4                             581 
    x56       c3                             665  c5                             640 
    x56       c8                             589  c0                             322 
    x56       c2                             624  c9                             146 
    x56       c1                             523  c7                             482 
    x56       c6                             569 
    x57       c6                             676  c5                             620 
    x57       c9                             939  c1                             682 
    x57       c8                             383  Obj                            678 
    x57       c2                              89  c3                             144 
    x57       c7                             406  c4                             255 
    x57       c0                             734 
    x58       c8                             351  c9                              44 
    x58       c0                             268  c4                             953 
    x58       Obj                            460  c3                             145 
    x58       c2                             990  c1                              64 
    x58       c5                             190  c6                             332 
    x58       c7                              54 
    x59       c5                             720  c3                             225 
    x59       c7                             252  c6                             743 
    x59       c9                             388  c1                             964 
    x59       c4                             797  c2                             119 
    x59       c8                             974  c0                             718 
    x59       Obj                            814 
    x60       c6                             604  c1                             991 
    x60       c5                             717  c9                              47 
    x60       c8                             843  c0                             637 
    x60       c2                             355  c4                             411 
    x60       Obj                            676  c7                             522 
    x60       c3                              86 
    x61       c6                             692  c5                             785 
    x61       c2                             370  Obj                            840 
    x61       c9                             187  c8                             134 
    x61       c7                             357  c4                             671 
    x61       c3                              19  c1                             622 
    x61       c0                             955 
    x62       c2                             593  c6                             186 
    x62       c9                             402  c0                             786 
    x62       c5                             818  c8                             912 
    x62       c7                             728  c4                             646 
    x62       Obj                            721  c1                             463 
    x62       c3                             422 
    x63       Obj                            914  c4                             719 
    x63       c6                             403  c7                             339 
    x63       c2                             326  c8                             897 
    x63       c5                               7  c3                             934 
    x63       c9                             783  c0                              28 
    x63       c1                             190 
    x64       c2                             880  c7                             620 
    x64       c5                              88  c6                             131 
    x64       c9                             182  c8                             839 
    x64       c1                             851  c0                             217 
    x64       c3                             241  Obj                            491 
    x64       c4                             327 
    x65       c4                             934  c8                             794 
    x65       Obj                            760  c2                             843 
    x65       c3                             988  c6                             547 
    x65       c5                             250  c7                             967 
    x65       c1                              31  c9                             331 
    x65       c0                             241 
    x66       Obj                            878  c2                             859 
    x66       c6                             166  c9                             234 
    x66       c3                             257  c1                             565 
    x66       c5                             943  c7                             858 
    x66       c0                             601  c4                             534 
    x66       c8                             285 
    x67       c8                             508  c3                             738 
    x67       c7                              37  c5                             876 
    x67       c2                             843  c9                             545 
    x67       Obj                            960  c1                             745 
    x67       c4                             233  c0                             771 
    x67       c6                             351 
    x68       c7                             979  Obj                            879 
    x68       c9                             338  c0                             601 
    x68       c1                             323  c2                             507 
    x68       c6                             205  c4                             886 
    x68       c5                              89  c8                             458 
    x68       c3                             896 
    x69       c7                             318  c3                             493 
    x69       c0                             345  c1                             797 
    x69       c4                             585  c8                             748 
    x69       c5                             191  c9                             400 
    x69       Obj                            862  c6                             334 
    x69       c2                              27 
    x70       c7                             330  c6                             756 
    x70       c3                             823  c5                             944 
    x70       c8                             987  c2                              96 
    x70       c9                             565  Obj                            725 
    x70       c4                             894  c0                             375 
    x70       c1                             481 
    x71       c4                             878  c8                             788 
    x71       c3                              21  c0                             424 
    x71       c1                             644  c7                             919 
    x71       c6                             592  Obj                           1020 
    x71       c5                             436  c2                             912 
    x71       c9                             279 
    x72       c0                             767  c3                             181 
    x72       Obj                            714  c1                             192 
    x72       c8                             202  c7                             867 
    x72       c5                             861  c2                             839 
    x72       c6                              41  c4                             988 
    x72       c9                             569 
    x73       c7                             305  c2                              76 
    x73       Obj                            588  c9                             494 
    x73       c1                             412  c3                             135 
    x73       c5                             299  c8                             375 
    x73       c6                             694  c0                             738 
    x73       c4                             242 
    x74       c2                             760  c5                             430 
    x74       c7                              89  c6                             522 
    x74       c8                             234  c9                             276 
    x74       Obj                            554  c0                             534 
    x74       c3                             253  c4                              70 
    x74       c1                              41 
    x75       c6                             897  c7                              91 
    x75       c5                             555  c9                             242 
    x75       c8                             723  c2                             636 
    x75       Obj                            840  c4                             610 
    x75       c1                             426  c3                             825 
    x75       c0                             353 
    x76       Obj                            962  c5                             289 
    x76       c7                             971  c4                             998 
    x76       c2                             302  c6                             474 
    x76       c0                             586  c8                             990 
    x76       c9                             869  c3                             876 
    x76       c1                             797 
    x77       c1                             621  c5                             340 
    x77       c8                             622  c2                             741 
    x77       Obj                            562  c4                             325 
    x77       c3                             740  c9                             617 
    x77       c7                             266  c0                             399 
    x77       c6                             201 
    x78       c3                             584  c4                             278 
    x78       c8                             302  Obj                            742 
    x78       c6                             125  c2                             118 
    x78       c0                             462  c7                             654 
    x78       c9                             177  c1                             446 
    x78       c5                             643 
    x79       c5                             681  c9                              66 
    x79       c4                             429  c1                             861 
    x79       c8                             840  c0                             903 
    x79       c2                             878  c3                             480 
    x79       c6                             577  Obj                            884 
    x79       c7                             906 
    x80       c7                             143  c2                             488 
    x80       c6                             157  Obj                            427 
    x80       c5                             806  c9                             217 
    x80       c8                             820  c3                              22 
    x80       c0                              98  c4                             212 
    x80       c1                             344 
    x81       c3                             278  c8                             770 
    x81       c6                             991  c4                             222 
    x81       c0                             614  c9                             621 
    x81       Obj                            699  c1                             179 
    x81       c5                             734  c7                             128 
    x81       c2                             741 
    x82       c2                              22  c1                             928 
    x82       c0                             250  c8                             650 
    x82       c9                               6  c6                             195 
    x82       c3                             886  c7                              99 
    x82       c5                             789  c4                             975 
    x82       Obj                            974 
    x83       Obj                            846  c3                             159 
    x83       c8                             914  c5                             107 
    x83       c4                             103  c1                             940 
    x83       c2                             550  c7                             281 
    x83       c6                             335  c0                             913 
    x83       c9                             980 
    x84       c2                             485  c5                             728 
    x84       c4                             537  c7                             819 
    x84       c6                              92  Obj                            705 
    x84       c9                             379  c0                              13 
    x84       c1                              17  c8                             151 
    x84       c3                             218 
    x85       c0                              89  c5                             791 
    x85       c3                              93  c6                              20 
    x85       c7                             941  c8                             326 
    x85       Obj                            492  c9                             686 
    x85       c1                              85  c2                             492 
    x85       c4                             670 
    x86       c7                             841  Obj                            538 
    x86       c0                             307  c4                             195 
    x86       c1                             185  c3                              61 
    x86       c6                             467  c2                             412 
    x86       c8                             540  c9                             904 
    x86       c5                             951 
    x87       c0                             820  c7                             692 
    x87       c6                             598  Obj                            993 
    x87       c2                             200  c9                             179 
    x87       c5                             871  c1                             613 
    x87       c4                             988  c3                             356 
    x87       c8                             123 
    x88       c2                             403  c1                             172 
    x88       c4                             803  c6                             120 
    x88       c5                             276  Obj                            546 
    x88       c3                             641  c8                             225 
    x88       c9                             597  c0                             111 
    x88       c7                             191 
    x89       c1                             401  c9                             631 
    x89       c2                              26  c7                             415 
    x89       c0                             932  c8                             428 
    x89       Obj                            684  c5                             170 
    x89       c6                             448  c4                             922 
    x89       c3                             643 
    x90       c7                             412  c3                              30 
    x90       Obj                            850  c6                               6 
    x90       c0                             367  c8                             945 
    x90       c1                             970  c2                             709 
    x90       c4                             516  c9                             809 
    x90       c5                             855 
    x91       c5                             566  c6                             336 
    x91       c0                             892  c4                             972 
    x91       c7                             963  c2                             224 
    x91       c9                             480  c8                             164 
    x91       Obj                            860  c1                             449 
    x91       c3                             569 
    x92       c0                             779  c4                             672 
    x92       c1                              87  c9                             572 
    x92       c8                             172  c6                             584 
    x92       c3                             495  c5                             436 
    x92       Obj                            961  c2                             862 
    x92       c7                             757 
    x93       c0                             139  c8                             731 
    x93       Obj                            693  c9                             268 
    x93       c4                             922  c1                             339 
    x93       c5                             629  c3                             960 
    x93       c6                             744  c7                             800 
    x93       c2                             219 
    x94       c0                             479  c9                             320 
    x94       Obj                            758  c4                             822 
    x94       c8                             559  c1                             687 
    x94       c6                             445  c7                             270 
    x94       c3                             513  c5                             594 
    x94       c2                             703 
    x95       Obj                            773  c1                             850 
    x95       c3                             222  c9                             865 
    x95       c4                             633  c0                             313 
    x95       c6                             484  c5                             911 
    x95       c8                             476  c2                             340 
    x95       c7                             590 
    x96       c8                             897  c3                             328 
    x96       c9                             309  c5                             420 
    x96       c4                             630  c0                             277 
    x96       c6                              13  c7                             523 
    x96       c2                             603  Obj                            677 
    x96       c1                             858 
    x97       c1                             368  c3                             252 
    x97       c4                             602  c9                              54 
    x97       c6                             563  c7                             556 
    x97       c0                             673  Obj                            932 
    x97       c2                             497  c8                             526 
    x97       c5                             641 
    x98       c6                              64  Obj                            577 
    x98       c2                              63  c9                             457 
    x98       c5                             415  c0                             100 
    x98       c7                             885  c4                             620 
    x98       c8                             869  c1                             892 
    x98       c3                             576 
    x99       c3                              64  c4                             304 
    x99       c5                             183  c2                             260 
    x99       c8                             593  Obj                            964 
    x99       c0                             970  c7                             745 
    x99       c6                             703  c1                             837 
    x99       c9                              98 
    INTEND    'MARKER'                            'INTEND'                           
RHS
    RHS       c0                           35798  c1                           37530 
    RHS       c2                           33303  c3                           34295 
    RHS       c4                           42724  c5                           40369 
    RHS       c6                           34230  c7                           40188 
    RHS       c8                           39585  c9                           36169 
BOUNDS
 BV Bound     x0                                 
 BV Bound     x1                                 
 BV Bound     x2                                 
 BV Bound     x3                                 
 BV Bound     x4                                 
 BV Bound     x5                                 
 BV Bound     x6                                 
 BV Bound     x7                                 
 BV Bound     x8                                 
 BV Bound     x9                                 
 BV Bound     x10                                
 BV Bound     x11                                
 BV Bound     x12                                
 BV Bound     x13                                
 BV Bound     x14                                
 BV Bound     x15                                
 BV Bound     x16                                
 BV Bound     x17                                
 BV Bound     x18                                
 BV Bound     x19                                
 BV Bound     x20                                
 BV Bound     x21                                
 BV Bound     x22                                
 BV Bound     x23                                
 BV Bound     x24                                
 BV Bound     x25                                
 BV Bound     x26                                
 BV Bound     x27                                
 BV Bound     x28                                
 BV Bound     x29                                
 BV Bound     x30                                
 BV Bound     x31                                
 BV Bound     x32                                
 BV Bound     x33                                
 BV Bound     x34                                
 BV Bound     x35                                
 BV Bound     x36                                
 BV Bound     x37                                
 BV Bound     x38                                
 BV Bound     x39                                
 BV Bound     x40                                
 BV Bound     x41                                
 BV Bound     x42                                
 BV Bound     x43                                
 BV Bound     x44                                
 BV Bound     x45                                
 BV Bound     x46                                
 BV Bound     x47                                
 BV Bound     x48                                
 BV Bound     x49                                
 BV Bound     x50                                
 BV Bound     x51                                
 BV Bound     x52                                
 BV Bound     x53                                
 BV Bound     x54                                
 BV Bound     x55                                
 BV Bound     x56                                
 BV Bound     x57                                
 BV Bound     x58                                
 BV Bound     x59                                
 BV Bound     x60                                
 BV Bound     x61                                
 BV Bound     x62                                
 BV Bound     x63                                
 BV Bound     x64                                
 BV Bound     x65                                
 BV Bound     x66                                
 BV Bound     x67                                
 BV Bound     x68                                
 BV Bound     x69                                
 BV Bound     x70                                
 BV Bound     x71                                
 BV Bound     x72                                
 BV Bound     x73                                
 BV Bound     x74                                
 BV Bound     x75                                
 BV Bound     x76                                
 BV Bound     x77                                
 BV Bound     x78                                
 BV Bound     x79                                
 BV Bound     x80                                
 BV Bound     x81                                
 BV Bound     x82                                
 BV Bound     x83                                
 BV Bound     x84                                
 BV Bound     x85                                
 BV Bound     x86                                
 BV Bound     x87                                
 BV Bound     x88                                
 BV Bound     x89                                
 BV Bound     x90                                
 BV Bound     x91                                
 BV Bound     x92                                
 BV Bound     x93                                
 BV Bound     x94                                
 BV Bound     x95                                
 BV Bound     x96                                
 BV Bound     x97                                
 BV Bound     x98                                
 BV Bound     x99                                
ENDATA