* SCIP STATISTICS
*   Problem name     : mknap_27
*   Variables        : 100 (100 binary, 0 integer, 0 implicit integer, 0 continuous)
*   Constraints      : 10
NAME          mknap_27
OBJSENSE
  MAX
ROWS
 N  Obj 
 L  c0 
 L  c1 
 L  c2 
 L  c3 
 L  c4 
 L  c5 
 L  c6 
 L  c7 
 L  c8 
 L  c9 
COLUMNS
    INTSTART  'MARKER'                            'INTORG'                           
    x0        Obj                           1062  c5                             851 
    x0        c4                             284  c6                              80 
    x0        c3                             347  c7                             774 
    x0        c2                             809  c8                             506 
    x0        c1                             821  c9                             455 
    x0        c0                             749 
    x1        Obj                            838  c5                             309 
    x1        c4                             797  c6                             999 
    x1        c3                             926  c7                             241 
    x1        c2                             440  c8                             516 
    x1        c1                             170  c9                             591 
    x1        c0                             429 
    x2        c9                             963  c5                             215 
    x2        Obj                            865  c3                             577 
    x2        c1                             516  c4                             795 
    x2        c0                             939  c8                             967 
    x2        c7                             427  c2                             349 
    x2        c6                             551 
    x3        c9                             112  c8                             980 
    x3        c2                             955  c1                             272 
    x3        c6                             717  c7                              16 
    x3        c3                             462  Obj                            709 
    x3        c4                             989  c0                             514 
    x3        c5                             432 
    x4        c4                             558  c3                             553 
    x4        c0                             890  c6                             394 
    x4        Obj                            550  c1                             537 
    x4        c7                              79  c2                             539 
    x4        c5                             824  c8                             885 
    x4        c9                             190 
    x5        c8                             136  c3                             682 
    x5        c1                             421  c5                             758 
    x5        c6                             971  c7                              40 
    x5        Obj                            861  c4                             634 
    x5        c0                             858  c9                             698 
    x5        c2                             175 
    x6        Obj                            583  c3                             780 
    x6        c8                             611  c4                             511 
    x6        c0                             235  c7                             384 
    x6        c5                             627  c9                               6 
    x6        c1                             319  c2                             935 
    x6        c6                             738 
    x7        c9                             565  c5                             590 
    x7        c1                             840  c7                             188 
    x7        c2                             826  c4                             535 
    x7        Obj                            631  c8                             113 
    x7        c0                              53  c3                             869 
    x7        c6                             770 
    x8        c5                             296  c7                             546 
    x8        c2                             438  c4                             144 
    x8        c1                             122  c6                             415 
    x8        c0                             860  c8                              64 
    x8        Obj                            399  c3                             596 
    x8        c9                             451 
    x9        c9                             182  c4                             711 
    x9        c8                              71  c6                             210 
    x9        c0                             886  Obj                            533 
    x9        c1                             125  c3                              97 
    x9        c7                             983  c5                             414 
    x9        c2                             690 
    x10       c9                             100  c3                             323 
    x10       Obj                            513  c4                             676 
    x10       c8                             211  c6                              54 
    x10       c0                             611  c5                             618 
    x10       c7                              59  c2                             989 
    x10       c1                             251 
    x11       c1                             299  c8                             656 
    x11       c0                             866  c9                             964 
    x11       c2                             865  c7                             850 
    x11       c3                             571  c6                              84 
    x11       c4                             906  c5                             909 
    x11       Obj                            702 
    x12       Obj                            870  c5                             965 
    x12       c3                             614  c1                             380 
    x12       c7                             548  c9                             426 
    x12       c8                             988  c0                             237 
    x12       c6                             631  c2                              38 
    x12       c4                              56 
    x13       c5                             716  c8                             398 
    x13       c3                             904  c7                             482 
    x13       c9                              90  c0                             519 
    x13       c1                             342  c6                             396 
    x13       c2                             219  c4                             136 
    x13       Obj                            716 
    x14       Obj                            901  c4                             755 
    x14       c5                             991  c6                              65 
    x14       c7                             610  c1                             607 
    x14       c2                             539  c0                             187 
    x14       c3                             780  c9                             897 
    x14       c8                             852 
    x15       c9                              36  c1                             970 
    x15       c2                             537  c7                             401 
    x15       c6                             666  c8                             109 
    x15       Obj                            784  c3                             903 
    x15       c0                             617  c5                             733 
    x15       c4                             434 
    x16       c3                             554  Obj                            548 
    x16       c5                             100  c9                              85 
    x16       c1                             260  c4                             167 
    x16       c7                             236  c6                             299 
    x16       c0                             507  c8                              94 
    x16       c2                             427 
    x17       c7                              35  c3                             410 
    x17       c9                              46  Obj                            654 
    x17       c4                             492  c2                             707 
    x17       c1                             222  c5                             966 
    x17       c6                             314  c0                             708 
    x17       c8                              59 
    x18       c8                             721  c1                             229 
    x18       c5                              39  c6                             459 
    x18       c0                             616  c3                             486 
    x18       c9                              54  Obj                            678 
    x18       c7                             649  c2                             514 
    x18       c4                             941 
    x19       Obj                            528  c5                             809 
    x19       c8                             215  c0                             607 
    x19       c9                             279  c2                             720 
    x19       c6                             320  c3                             784 
    x19       c4                             558  c7                             468 
    x19       c1                             107 
    x20       c1                             534  c7                             146 
    x20       c3                              78  c4                             753 
    x20       Obj                            392  c9                              94 
    x20       c8                             379  c0                             246 
    x20       c5                             125  c2                             813 
    x20       c6                             113 
    x21       c9                              14  c1                             502 
    x21       c2                             676  c4                             527 
    x21       Obj                            713  c5                             430 
    x21       c0                             195  c6                             124 
    x21       c3                             259  c8                             320 
    x21       c7                             854 
    x22       c8                             393  Obj                            542 
    x22       c0                              42  c1                             718 
    x22       c9                             721  c2                             721 
    x22       c5                             278  c7                             169 
    x22       c4                              37  c3                             447 
    x22       c6                             427 
    x23       c8                             701  c6                             184 
    x23       c0                             929  Obj                            501 
    x23       c9                             328  c1                              83 
    x23       c2                             375  c5                             293 
    x23       c7                             326  c4                              40 
    x23       c3                             576 
    x24       c3                             229  c0                             576 
    x24       c6                             639  c9                             524 
    x24       Obj                            351  c1                              90 
    x24       c7                             220  c2                             514 
    x24       c4                              58  c5                             148 
    x24       c8                             467 
    x25       c9                             505  c0                             227 
    x25       c3                             542  c1                               6 
    x25       c7                             828  c8                             771 
    x25       Obj                            638  c6                             380 
    x25       c5                             561  c4                             784 
    x25       c2                             289 
    x26       Obj                            473  c5                               3 
    x26       c9                             452  c2                              13 
    x26       c0                             728  c3                             457 
    x26       c7                             831  c8                             128 
    x26       c4                             852  c1                              94 
    x26       c6                             346 
    x27       c5                             145  c0                             312 
    x27       c3                             862  Obj                            815 
    x27       c7                              55  c6                             282 
    x27       c1                             136  c8                             937 
    x27       c9                             381  c4                             562 
    x27       c2                             929 
    x28       c1                             978  c9                             439 
    x28       Obj                            897  c7                             471 
    x28       c6                             369  c2                             705 
    x28       c3                             817  c8                              37 
    x28       c0                             785  c4                             637 
    x28       c5                              85 
    x29       c8                             799  c9                             301 
    x29       c7                             744  c6                             338 
    x29       c0                             176  Obj                            786 
    x29       c4                             177  c3                             574 
    x29       c2                             642  c5                             326 
    x29       c1                             174 
    x30       c0                             812  c6                              56 
    x30       c3                             460  c7                             853 
    x30       c1                             712  Obj                            955 
    x30       c4                             607  c8                             182 
    x30       c9                             265  c5                              82 
    x30       c2                             653 
    x31       c7                             621  c4                             680 
    x31       c1                             588  c2                             220 
    x31       c0                             435  Obj                            980 
    x31       c6                             700  c8                             294 
    x31       c3                             956  c5                             354 
    x31       c9                             900 
    x32       c7                             207  c3                             483 
    x32       c4                             915  c6                             210 
    x32       c2                             579  c1                             196 
    x32       c5                             193  c9                              90 
    x32       c8                             309  c0                             127 
    x32       Obj                            333 
    x33       c2                             321  c0                             986 
    x33       c8                             839  c1                             629 
    x33       c3                             438  c9                             798 
    x33       Obj                            971  c4                             930 
    x33       c7                              28  c6                             935 
    x33       c5                             395 
    x34       c4                             707  c6                             120 
    x34       c9                             312  c0                             574 
    x34       c3                              49  c5                             101 
    x34       c7                             400  c2                             877 
    x34       Obj                            810  c1                              15 
    x34       c8                             130 
    x35       c4                             639  c5                             901 
    x35       c9                             871  c3                             396 
    x35       Obj                           1091  c7                             657 
    x35       c8                             681  c2                             901 
    x35       c1                             802  c0                             111 
    x35       c6                             954 
    x36       c6                             979  c2                             431 
    x36       c1                             672  c9                             986 
    x36       c7                             511  c8                             973 
    x36       Obj                            913  c5                             403 
    x36       c4                             597  c3                             323 
    x36       c0                             792 
    x37       c4                             101  c9                             907 
    x37       c8                             152  c6                             649 
    x37       c2                             510  c1                             330 
    x37       Obj                            691  c5                             430 
    x37       c7                             689  c0                             469 
    x37       c3                             449 
    x38       c0                             657  Obj                            909 
    x38       c2                              88  c4                             412 
    x38       c1                             913  c6                             356 
    x38       c9                             414  c7                              31 
    x38       c8                             716  c5                             185 
    x38       c3                             348 
    x39       c8                             657  c6                              13 
    x39       Obj                            526  c0                             270 
    x39       c5                             411  c1                             717 
    x39       c7                             190  c2                             341 
    x39       c9                             208  c4                             897 
    x39       c3                             592 
    x40       c3                             789  c9                             346 
    x40       c7                             576  c1                             993 
    x40       c4                             763  c2                             882 
    x40       c6                             935  c0                             183 
    x40       c8                             777  c5                             601 
    x40       Obj                           1131 
    x41       Obj                            955  c0                             919 
    x41       c8                             476  c7                             207 
    x41       c4                             799  c1                             195 
    x41       c6                             753  c5                              54 
    x41       c2                             459  c9                             742 
    x41       c3                             801 
    x42       c8                              29  c0                             872 
    x42       c9                             334  c5                             873 
    x42       c7                             862  Obj                            910 
    x42       c3                             319  c6                             424 
    x42       c2                              93  c1                             293 
    x42       c4                             729 
    x43       c1                             540  c8                             821 
    x43       c0                             778  c9                             819 
    x43       c6                             779  c3                             208 
    x43       c4                             285  Obj                            950 
    x43       c5                             346  c2                             566 
    x43       c7                             322 
    x44       c7                             666  Obj                           1061 
    x44       c8                             928  c1                             627 
    x44       c2                             353  c0                             520 
    x44       c9                             932  c3                             921 
    x44       c6                             762  c4                             856 
    x44       c5                             619 
    x45       c5                             792  Obj                            751 
    x45       c1                             784  c2                             238 
    x45       c0                             995  c7                             418 
    x45       c4                              35  c9                              63 
    x45       c8                              78  c3                             160 
    x45       c6                             381 
    x46       c8                             183  c3                             534 
    x46       c6                             832  c5                             726 
    x46       c7                             486  c1                             598 
    x46       c2                             261  c9                             900 
    x46       c0                             950  c4                             423 
    x46       Obj                            847 
    x47       c3                             467  c1                             200 
    x47       c2                              27  c0                             761 
    x47       c4                             153  c6                             706 
    x47       c9                             621  c8                             586 
    x47       c5                             393  Obj                            624 
    x47       c7                              49 
    x48       c8                             994  Obj                            807 
    x48       c6                             133  c4                             595 
    x48       c2                             734  c9                             800 
    x48       c7                              83  c0                              44 
    x48       c5                             773  c3                             137 
    x48       c1                             408 
    x49       c5                             488  c7                             209 
    x49       c3                             784  c0                             336 
    x49       c1                              22  c8                             865 
    x49       c9                             679  c4                              46 
    x49       c2                             722  Obj                            574 
    x49       c6                             654 
    x50       c3                             127  c8                             324 
    x50       c9                             182  c4                              79 
    x50       c2                             578  c7                             885 
    x50       c5                             817  c6                             441 
    x50       Obj                            683  c0                             944 
    x50       c1                             326 
    x51       c6                             828  c8                              89 
    x51       c2                             738  c7                             598 
    x51       c4                             103  c1                             826 
    x51       c3                             137  c0                             262 
    x51       c9                             552  c5                              89 
    x51       Obj                            778 
    x52       c3                              49  c8                             455 
    x52       c5                             348  c2                             676 
    x52       c7                             825  c6                             475 
    x52       c1                             746  c4                             614 
    x52       c0                             379  c9                             972 
    x52       Obj                           1038 
    x53       c5                             422  c2                             196 
    x53       c6                              89  c0                            1000 
    x53       c7                             710  c1                             405 
    x53       c4                              50  c3                              75 
    x53       Obj                            616  c9                             101 
    x53       c8                             534 
    x54       c1                             868  c8                             895 
    x54       c3                             965  c6                             696 
    x54       c5                             582  c0                             251 
    x54       c9                             952  Obj                            973 
    x54       c7                             636  c4                             657 
    x54       c2                             215 
    x55       c5                             917  c4                             729 
    x55       c9                              91  Obj                           1006 
    x55       c6                             496  c0                             979 
    x55       c7                             778  c1                             172 
    x55       c2                             747  c8                             458 
    x55       c3                              38 
    x56       Obj                            610  c4                             701 
    x56       c3                             136  c5                             842 
    x56       c8                             194  c0                             421 
    x56       c2                             619  c9                             167 
    x56       c1                             704  c7                               9 
    x56       c6                             377 
    x57       c6                             342  c5                             836 
    x57       c9                             411  c1                             801 
    x57       c8                             745  Obj                            983 
    x57       c2                             222  c3                             217 
    x57       c7                             783  c4                             211 
    x57       c0                             985 
    x58       c8                             141  c9                             819 
    x58       c0                             908  c4                              93 
    x58       Obj                            554  c3                             305 
    x58       c2                             287  c1                             337 
    x58       c5                             217  c6                             876 
    x58       c7                             956 
    x59       c5                             200  c3                             623 
    x59       c7                             792  c6                             711 
    x59       c9                             659  c1                             870 
    x59       c4                             668  c2                             453 
    x59       c8                             387  c0                             505 
    x59       Obj                           1002 
    x60       c6                             199  c1                             170 
    x60       c5                             217  c9                             350 
    x60       c8                             807  c0                             366 
    x60       c2                             257  c4                             222 
    x60       Obj                            719  c7                             742 
    x60       c3                             504 
    x61       c6                             418  c5                             289 
    x61       c2                              78  Obj                            500 
    x61       c9                             182  c8                              43 
    x61       c7                              47  c4                             971 
    x61       c3                              61  c1                             385 
    x61       c0                              62 
    x62       c2                             359  c6                              69 
    x62       c9                             550  c0                             484 
    x62       c5                             277  c8                             706 
    x62       c7                             408  c4                             926 
    x62       Obj                            713  c1                             517 
    x62       c3                             191 
    x63       Obj                            714  c4                             765 
    x63       c6                             873  c7                             646 
    x63       c2                             749  c8                             471 
    x63       c5                             808  c3                             330 
    x63       c9                             253  c0                             906 
    x63       c1                             501 
    x64       c2                             527  c7                             753 
    x64       c5                             833  c6                               9 
    x64       c9                             882  c8                              58 
    x64       c1                             202  c0                             717 
    x64       c3                             727  Obj                            898 
    x64       c4                             442 
    x65       c4                             326  c8                             990 
    x65       Obj                            584  c2                             564 
    x65       c3                             647  c6                             613 
    x65       c5                             903  c7                             899 
    x65       c1                             121  c9                             184 
    x65       c0                             475 
    x66       Obj                            582  c2                              51 
    x66       c6                             377  c9                             136 
    x66       c3                             489  c1                             301 
    x66       c5                             352  c7                             577 
    x66       c0                             624  c4                             101 
    x66       c8                             779 
    x67       c8                             975  c3                             831 
    x67       c7                             731  c5                             766 
    x67       c2                             438  c9                             127 
    x67       Obj                            810  c1                             522 
    x67       c4                              46  c0                              85 
    x67       c6                             555 
    x68       c7                             843  Obj                            691 
    x68       c9                             640  c0                             803 
    x68       c1                             224  c2                             847 
    x68       c6                             388  c4                             327 
    x68       c5                             611  c8                             827 
    x68       c3                             300 
    x69       c7                             813  c3                             551 
    x69       c0                             771  c1                             328 
    x69       c4                             565  c8                             842 
    x69       c5                             532  c9                             157 
    x69       Obj                           1074  c6                             891 
    x69       c2                             486 
    x70       c7                             572  c6                             698 
    x70       c3                             110  c5                             168 
    x70       c8                              86  c2                             913 
    x70       c9                             882  Obj                            744 
    x70       c4                             271  c0                             258 
    x70       c1                             417 
    x71       c4                             206  c8                             536 
    x71       c3                             760  c0                             407 
    x71       c1                             193  c7                             721 
    x71       c6                             713  Obj                            553 
    x71       c5                             234  c2                             175 
    x71       c9                             289 
    x72       c0                             276  c3                             864 
    x72       Obj                           1108  c1                             300 
    x72       c8                             443  c7                             707 
    x72       c5                             937  c2                             958 
    x72       c6                             417  c4                             851 
    x72       c9                             638 
    x73       c7                             426  c2                             843 
    x73       Obj                            673  c9                             575 
    x73       c1                             745  c3                             438 
    x73       c5                              98  c8                             546 
    x73       c6                             162  c0                             513 
    x73       c4                             748 
    x74       c2                              95  c5                             444 
    x74       c7                             564  c6                              17 
    x74       c8                             643  c9                             624 
    x74       Obj                            589  c0                             225 
    x74       c3                             936  c4                             701 
    x74       c1                             318 
    x75       c6                             723  c7                             137 
    x75       c5                             433  c9                              71 
    x75       c8                             482  c2                             415 
    x75       Obj                            795  c4                             860 
    x75       c1                             620  c3                             978 
    x75       c0                             618 
    x76       Obj                            758  c5                             179 
    x76       c7                             944  c4                             696 
    x76       c2                             237  c6                             131 
    x76       c0                             183  c8                             567 
    x76       c9                             838  c3                             954 
    x76       c1                             345 
    x77       c1                             633  c5                             335 
    x77       c8                             229  c2                             185 
    x77       Obj                            372  c4                             770 
    x77       c3                             453  c9                             178 
    x77       c7                             388  c0                              80 
    x77       c6                             273 
    x78       c3                             625  c4                             839 
    x78       c8                             818  Obj                            759 
    x78       c6                             433  c2                             573 
    x78       c0                               9  c7                             582 
    x78       c9                             249  c1                             576 
    x78       c5                             930 
    x79       c5                             806  c9                             379 
    x79       c4                             882  c1                              66 
    x79       c8                              28  c0                             663 
    x79       c2                               1  c3                             969 
    x79       c6                             266  Obj                            475 
    x79       c7                             569 
    x80       c7                             429  c2                             135 
    x80       c6                             216  Obj                            847 
    x80       c5                             779  c9                               4 
    x80       c8                             455  c3                             265 
    x80       c0                             773  c4                             755 
    x80       c1                             310 
    x81       c3                             786  c8                             966 
    x81       c6                             675  c4                             411 
    x81       c0                             603  c9                             375 
    x81       Obj                            879  c1                             637 
    x81       c5                             957  c7                             184 
    x81       c2                             623 
    x82       c2                              83  c1                             590 
    x82       c0                             106  c8                             601 
    x82       c9                             507  c6                             523 
    x82       c3                              19  c7                             281 
    x82       c5                             436  c4                             160 
    x82       Obj                            742 
    x83       Obj                            764  c3                              28 
    x83       c8                             440  c5                             466 
    x83       c4                             922  c1                             779 
    x83       c2                             687  c7                             895 
    x83       c6                             599  c0                             594 
    x83       c9                             756 
    x84       c2                             315  c5                             555 
    x84       c4                             170  c7                             408 
    x84       c6                             633  Obj                            575 
    x84       c9                             344  c0                             483 
    x84       c1                             532  c8                             829 
    x84       c3                             454 
    x85       c0                             332  c5                             415 
    x85       c3                              21  c6                             542 
    x85       c7                             293  c8                             595 
    x85       Obj                            837  c9                             833 
    x85       c1                             321  c2                             497 
    x85       c4                             383 
    x86       c7                              97  Obj                            614 
    x86       c0                             969  c4                             199 
    x86       c1                              19  c3                             818 
    x86       c6                             517  c2                             537 
    x86       c8                             108  c9                             488 
    x86       c5                             554 
    x87       c0                             953  c7                             794 
    x87       c6                             111  Obj                            491 
    x87       c2                             816  c9                             137 
    x87       c5                             211  c1                             505 
    x87       c4                              25  c3                             614 
    x87       c8                             715 
    x88       c2                             511  c1                             127 
    x88       c4                             944  c6                             938 
    x88       c5                             891  Obj                           1068 
    x88       c3                             361  c8                              54 
    x88       c9                             402  c0                             967 
    x88       c7                             633 
    x89       c1                             121  c9                             121 
    x89       c2                             583  c7                             728 
    x89       c0                             325  c8                             389 
    x89       Obj                            685  c5                             880 
    x89       c6                             438  c4                             472 
    x89       c3                             695 
    x90       c7                             144  c3                             458 
    x90       Obj                            498  c6                             641 
    x90       c0                             337  c8                             259 
    x90       c1                             287  c2                             512 
    x90       c4                             795  c9                             230 
    x90       c5                             678 
    x91       c5                             325  c6                             344 
    x91       c0                             268  c4                             941 
    x91       c7                             997  c2                             482 
    x91       c9                             604  c8                             480 
    x91       Obj                            654  c1                             166 
    x91       c3                             904 
    x92       c0                             748  c4                             987 
    x92       c1                             612  c9                             304 
    x92       c8                              58  c6                             665 
    x92       c3                              57  c5                              45 
    x92       Obj                            507  c2                             248 
    x92       c7                             362 
    x93       c0                             808  c8                             500 
    x93       Obj                            871  c9                             794 
    x93       c4                             406  c1                             296 
    x93       c5                             235  c3                             422 
    x93       c6                             224  c7                             786 
    x93       c2                             901 
    x94       c0                             815  c9                             913 
    x94       Obj                            815  c4                             333 
    x94       c8                             393  c1                             346 
    x94       c6                             103  c7                             787 
    x94       c3                             327  c5                             402 
    x94       c2                             595 
    x95       Obj                            700  c1                             559 
    x95       c3                             614  c9                             638 
    x95       c4                             392  c0                             204 
    x95       c6                             186  c5                             123 
    x95       c8                             225  c2                             110 
    x95       c7                             922 
    x96       c8                             939  c3                             240 
    x96       c9                             209  c5                             940 
    x96       c4                             880  c0                             670 
    x96       c6                             558  c7                             627 
    x96       c2                             483  Obj                            612 
    x96       c1                             567 
    x97       c1                             945  c3                             728 
    x97       c4                             298  c9                             788 
    x97       c6                             168  c7                             750 
    x97       c0                             143  Obj                            835 
    x97       c2                             928  c8                              40 
    x97       c5                               1 
    x98       c6                             866  Obj                           1032 
    x98       c2                             565  c9                             697 
    x98       c5                             121  c0                             688 
    x98       c7                             110  c4                             810 
    x98       c8                             818  c1                             412 
    x98       c3                             856 
    x99       c3                             912  c4                             522 
    x99       c5                              75  c2                             182 
    x99       c8                             757  Obj                            660 
    x99       c0                             932  c7                             928 
    x99       c6                             102  c1                              91 
    x99       c9                             550 
    INTEND    'MARKER'                            'INTEND'                           
RHS
    RHS       c0                           40929  c1                           32340 
    RHS       c2                           37439  c3                           37982 
    RHS       c4                           39675  c5                           36140 
    RHS       c6                           34703  c7                           38191 
    RHS       c8                           37105  c9                           34290 
BOUNDS
 BV Bound     x0                                 
 BV Bound     x1                                 
 BV Bound     x2                                 
 BV Bound     x3                                 
 BV Bound     x4                                 
 BV Bound     x5                                 
 BV Bound     x6                                 
 BV Bound     x7                                 
 BV Bound     x8                                 
 BV Bound     x9                                 
 BV Bound     x10                                
 BV Bound     x11                                
 BV Bound     x12                                
 BV Bound     x13                                
 BV Bound     x14                                
 BV Bound     x15                                
 BV Bound     x16                                
 BV Bound     x17                                
 BV Bound     x18                                
 BV Bound     x19                                
 BV Bound     x20                                
 BV Bound     x21                                
 BV Bound     x22                                
 BV Bound     x23                                
 BV Bound     x24                                
 BV Bound     x25                                
 BV Bound     x26                                
 BV Bound     x27                                
 BV Bound     x28                                
 BV Bound     x29                                
 BV Bound     x30                                
 BV Bound     x31                                
 BV Bound     x32                                
 BV Bound     x33                                
 BV Bound     x34                                
 BV Bound     x35                                
 BV Bound     x36                                
 BV Bound     x37                                
 BV Bound     x38                                
 BV Bound     x39                                
 BV Bound     x40                                
 BV Bound     x41                                
 BV Bound     x42                                
 BV Bound     x43                                
 BV Bound     x44                                
 BV Bound     x45                                
 BV Bound     x46                                
 BV Bound     x47                                
 BV Bound     x48                                
 BV Bound     x49                                
 BV Bound     x50                                
 BV Bound     x51                                
 BV Bound     x52                                
 BV Bound     x53                                
 BV Bound     x54                                
 BV Bound     x55                                
 BV Bound     x56                                
 BV Bound     x57                                
 BV Bound     x58                                
 BV Bound     x59                                
 BV Bound     x60                                
 BV Bound     x61                                
 BV Bound     x62                                
 BV Bound     x63                                
 BV Bound     x64                                
 BV Bound     x65                                
 BV Bound     x66                                
 BV Bound     x67                                
 BV Bound     x68                                
 BV Bound     x69                                
 BV Bound     x70                                
 BV Bound     x71                                
 BV Bound     x72                                
 BV Bound     x73                                
 BV Bound     x74                                
 BV Bound     x75                                
 BV Bound     x76                                
 BV Bound     x77                                
 BV Bound     x78                                
 BV Bound     x79                                
 BV Bound     x80                                
 BV Bound     x81                                
 BV Bound     x82                                
 BV Bound     x83                                
 BV Bound     x84                                
 BV Bound     x85                                
 BV Bound     x86                                
 BV Bound     x87                                
 BV Bound     x88                                
 BV Bound     x89                                
 BV Bound     x90                                
 BV Bound     x91                                
 BV Bound     x92                                
 BV Bound     x93                                
 BV Bound     x94                                
 BV Bound     x95                                
 BV Bound     x96                                
 BV Bound     x97                                
 BV Bound     x98                                
 BV Bound     x99                                
ENDATA