* SCIP STATISTICS
*   Problem name     : mknap_28
*   Variables        : 100 (100 binary, 0 integer, 0 implicit integer, 0 continuous)
*   Constraints      : 10
NAME          mknap_28
OBJSENSE
  MAX
ROWS
 N  Obj 
 L  c0 
 L  c1 
 L  c2 
 L  c3 
 L  c4 
 L  c5 
 L  c6 
 L  c7 
 L  c8 
 L  c9 
COLUMNS
    INTSTART  'MARKER'                            'INTORG'                           
    x0        Obj                            824  c5                             600 
    x0        c4                             156  c6                             397 
    x0        c3                             193  c7                             730 
    x0        c2                             348  c8                              70 
    x0        c1                             187  c9                             422 
    x0        c0                             344 
    x1        Obj                            603  c5                             640 
    x1        c4                             129  c6                             255 
    x1        c3                             526  c7                             524 
    x1        c2                             920  c8                             403 
    x1        c1                             243  c9                             122 
    x1        c0                             168 
    x2        c9                             553  c5                             527 
    x2        Obj                            844  c3                             548 
    x2        c1                             538  c4                             701 
    x2        c0                              84  c8                             427 
    x2        c7                             100  c2                             930 
    x2        c6                             520 
    x3        c9                             549  c8                             494 
    x3        c2                               1  c1                             838 
    x3        c6                             472  c7                             719 
    x3        c3                             928  Obj                            645 
    x3        c4                             629  c0                              83 
    x3        c5                             209 
    x4        c4                             381  c3                             851 
    x4        c0                             924  c6                             777 
    x4        Obj                            655  c1                             291 
    x4        c7                             579  c2                             349 
    x4        c5                             531  c8                             949 
    x4        c9                             607 
    x5        c8                             467  c3                              14 
    x5        c1                             602  c5                             905 
    x5        c6                             521  c7                             715 
    x5        Obj                            953  c4                             105 
    x5        c0                             243  c9                             610 
    x5        c2                             525 
    x6        Obj                            722  c3                             951 
    x6        c8                             831  c4                              99 
    x6        c0                             866  c7                             208 
    x6        c5                             858  c9                             915 
    x6        c1                             168  c2                             716 
    x6        c6                             431 
    x7        c9                             248  c5                             118 
    x7        c1                             129  c7                             223 
    x7        c2                             389  c4                             923 
    x7        Obj                            851  c8                             120 
    x7        c0                             628  c3                             486 
    x7        c6                             347 
    x8        c5                              81  c7                             580 
    x8        c2                             659  c4                             312 
    x8        c1                             527  c6                             909 
    x8        c0                             389  c8                             861 
    x8        Obj                           1083  c3                             671 
    x8        c9                             897 
    x9        c9                             708  c4                             529 
    x9        c8                             188  c6                             471 
    x9        c0                             839  Obj                            736 
    x9        c1                             270  c3                             898 
    x9        c7                             760  c5                             571 
    x9        c2                             948 
    x10       c9                             485  c3                              51 
    x10       Obj                            596  c4                             963 
    x10       c8                             162  c6                             578 
    x10       c0                             161  c5                             380 
    x10       c7                             357  c2                             203 
    x10       c1                             274 
    x11       c1                             924  c8                             932 
    x11       c0                             493  c9                             754 
    x11       c2                             631  c7                             384 
    x11       c3                             764  c6                             565 
    x11       c4                             580  c5                             685 
    x11       Obj                            947 
    x12       Obj                            570  c5                             772 
    x12       c3                             565  c1                             325 
    x12       c7                             151  c9                             958 
    x12       c8                             373  c0                             320 
    x12       c6                             556  c2                             702 
    x12       c4                             397 
    x13       c5                             711  c8                             630 
    x13       c3                             199  c7                             760 
    x13       c9                             328  c0                             304 
    x13       c1                             449  c6                              48 
    x13       c2                             666  c4                             538 
    x13       Obj                            814 
    x14       Obj                            766  c4                             836 
    x14       c5                             689  c6                             499 
    x14       c7                             700  c1                             887 
    x14       c2                             759  c0                             126 
    x14       c3                             803  c9                             788 
    x14       c8                             726 
    x15       c9                             959  c1                             987 
    x15       c2                             103  c7                              12 
    x15       c6                             548  c8                             848 
    x15       Obj                            930  c3                             352 
    x15       c0                             918  c5                             169 
    x15       c4                             502 
    x16       c3                             627  Obj                           1097 
    x16       c5                             876  c9                             755 
    x16       c1                             929  c4                             954 
    x16       c7                             560  c6                             957 
    x16       c0                             664  c8                             644 
    x16       c2                             954 
    x17       c7                             377  c3                             766 
    x17       c9                             345  Obj                            947 
    x17       c4                             643  c2                             995 
    x17       c1                             376  c5                             394 
    x17       c6                             773  c0                             135 
    x17       c8                             329 
    x18       c8                             925  c1                             327 
    x18       c5                             730  c6                             785 
    x18       c0                             317  c3                             877 
    x18       c9                             180  Obj                            665 
    x18       c7                             869  c2                             299 
    x18       c4                             342 
    x19       Obj                           1020  c5                             877 
    x19       c8                             578  c0                             447 
    x19       c9                             311  c2                             908 
    x19       c6                             840  c3                             621 
    x19       c4                             658  c7                             319 
    x19       c1                             202 
    x20       c1                             678  c7                             875 
    x20       c3                             309  c4                             926 
    x20       Obj                            856  c9                             711 
    x20       c8                             884  c0                             265 
    x20       c5                              63  c2                             132 
    x20       c6                             441 
    x21       c9                             606  c1                             557 
    x21       c2                             150  c4                             416 
    x21       Obj                            755  c5                             381 
    x21       c0                             781  c6                              93 
    x21       c3                             411  c8                              60 
    x21       c7                             857 
    x22       c8                             283  Obj                            542 
    x22       c0                             891  c1                             945 
    x22       c9                             229  c2                             385 
    x22       c5                             322  c7                              48 
    x22       c4                             176  c3                             215 
    x22       c6                             474 
    x23       c8                             868  c6                             506 
    x23       c0                             381  Obj                            906 
    x23       c9                             649  c1                             696 
    x23       c2                             530  c5                             439 
    x23       c7                             927  c4                             226 
    x23       c3                             864 
    x24       c3                             312  c0                             778 
    x24       c6                             780  c9                             651 
    x24       Obj                            711  c1                             495 
    x24       c7                             329  c2                             230 
    x24       c4                              92  c5                             993 
    x24       c8                             691 
    x25       c9                             195  c0                             997 
    x25       c3                             816  c1                             140 
    x25       c7                             263  c8                              55 
    x25       Obj                            441  c6                             746 
    x25       c5                             474  c4                             598 
    x25       c2                              23 
    x26       Obj                            484  c5                             597 
    x26       c9                              60  c2                             334 
    x26       c0                             655  c3                             303 
    x26       c7                             118  c8                             748 
    x26       c4                             789  c1                             735 
    x26       c6                             203 
    x27       c5                             870  c0                             139 
    x27       c3                             115  Obj                            389 
    x27       c7                              81  c6                             309 
    x27       c1                               6  c8                             625 
    x27       c9                             682  c4                             113 
    x27       c2                             132 
    x28       c1                             717  c9                             598 
    x28       Obj                            670  c7                             991 
    x28       c6                             931  c2                              99 
    x28       c3                             740  c8                             368 
    x28       c0                             222  c4                             344 
    x28       c5                              22 
    x29       c8                             394  c9                             862 
    x29       c7                             710  c6                              72 
    x29       c0                             199  Obj                            909 
    x29       c4                             767  c3                             145 
    x29       c2                             244  c5                             762 
    x29       c1                             727 
    x30       c0                             799  c6                             173 
    x30       c3                             620  c7                             891 
    x30       c1                             138  Obj                            954 
    x30       c4                             254  c8                             477 
    x30       c9                             186  c5                             552 
    x30       c2                             534 
    x31       c7                             496  c4                             237 
    x31       c1                             246  c2                             585 
    x31       c0                             952  Obj                            581 
    x31       c6                             831  c8                             316 
    x31       c3                             607  c5                             237 
    x31       c9                             307 
    x32       c7                             224  c3                             613 
    x32       c4                             411  c6                             730 
    x32       c2                             241  c1                             270 
    x32       c5                             450  c9                             637 
    x32       c8                             280  c0                             841 
    x32       Obj                            929 
    x33       c2                             911  c0                              99 
    x33       c8                             417  c1                             970 
    x33       c3                             470  c9                             523 
    x33       Obj                            836  c4                             610 
    x33       c7                             933  c6                             131 
    x33       c5                              89 
    x34       c4                             902  c6                             840 
    x34       c9                             463  c0                             716 
    x34       c3                             566  c5                             201 
    x34       c7                             623  c2                             822 
    x34       Obj                            912  c1                              93 
    x34       c8                             203 
    x35       c4                             734  c5                             821 
    x35       c9                             717  c3                             791 
    x35       Obj                            732  c7                             268 
    x35       c8                             149  c2                             640 
    x35       c1                             339  c0                             733 
    x35       c6                             326 
    x36       c6                             419  c2                             841 
    x36       c1                             201  c9                             244 
    x36       c7                             536  c8                             710 
    x36       Obj                            594  c5                             565 
    x36       c4                             566  c3                             752 
    x36       c0                             498 
    x37       c4                             464  c9                             711 
    x37       c8                             438  c6                             110 
    x37       c2                             165  c1                             414 
    x37       Obj                            703  c5                             278 
    x37       c7                             336  c0                             747 
    x37       c3                             627 
    x38       c0                             396  Obj                            862 
    x38       c2                              75  c4                             216 
    x38       c1                             819  c6                             492 
    x38       c9                              29  c7                             257 
    x38       c8                             781  c5                             589 
    x38       c3                             710 
    x39       c8                             690  c6                               3 
    x39       Obj                            643  c0                             906 
    x39       c5                             692  c1                             677 
    x39       c7                             531  c2                             771 
    x39       c9                              38  c4                             884 
    x39       c3                             497 
    x40       c3                             718  c9                             527 
    x40       c7                             800  c1                             756 
    x40       c4                             456  c2                             464 
    x40       c6                             749  c0                             997 
    x40       c8                             524  c5                             304 
    x40       Obj                            633 
    x41       Obj                            458  c0                             111 
    x41       c8                             469  c7                             236 
    x41       c4                              47  c1                             454 
    x41       c6                             715  c5                             308 
    x41       c2                             851  c9                              52 
    x41       c3                             134 
    x42       c8                             978  c0                             147 
    x42       c9                             764  c5                             339 
    x42       c7                             755  Obj                            952 
    x42       c3                             732  c6                             404 
    x42       c2                             774  c1                             127 
    x42       c4                              81 
    x43       c1                              81  c8                             751 
    x43       c0                             157  c9                             713 
    x43       c6                             928  c3                             675 
    x43       c4                             842  Obj                           1042 
    x43       c5                             504  c2                             733 
    x43       c7                             979 
    x44       c7                             951  Obj                            718 
    x44       c8                             932  c1                              33 
    x44       c2                             731  c0                             541 
    x44       c9                              64  c3                             202 
    x44       c6                             274  c4                             992 
    x44       c5                              72 
    x45       c5                             282  Obj                            547 
    x45       c1                             187  c2                             356 
    x45       c0                             951  c7                             333 
    x45       c4                             390  c9                             273 
    x45       c8                             845  c3                             501 
    x45       c6                              38 
    x46       c8                             442  c3                              68 
    x46       c6                             457  c5                             116 
    x46       c7                             611  c1                             311 
    x46       c2                             524  c9                             648 
    x46       c0                             561  c4                             453 
    x46       Obj                            668 
    x47       c3                              71  c1                             626 
    x47       c2                             978  c0                             914 
    x47       c4                             956  c6                             136 
    x47       c9                             223  c8                             294 
    x47       c5                             946  Obj                            780 
    x47       c7                             923 
    x48       c8                             509  Obj                            736 
    x48       c6                             214  c4                              33 
    x48       c2                             445  c9                             950 
    x48       c7                             967  c0                             252 
    x48       c5                             725  c3                             978 
    x48       c1                             421 
    x49       c5                             210  c7                             624 
    x49       c3                             542  c0                             475 
    x49       c1                             632  c8                              36 
    x49       c9                             390  c4                             700 
    x49       c2                             106  Obj                            648 
    x49       c6                             743 
    x50       c3                             848  c8                             527 
    x50       c9                             925  c4                             442 
    x50       c2                              23  c7                             391 
    x50       c5                             223  c6                             735 
    x50       Obj                            561  c0                             418 
    x50       c1                              96 
    x51       c6                             403  c8                             244 
    x51       c2                             811  c7                             405 
    x51       c4                             473  c1                             170 
    x51       c3                             294  c0                             337 
    x51       c9                             583  c5                              74 
    x51       Obj                            704 
    x52       c3                             696  c8                               6 
    x52       c5                             609  c2                             752 
    x52       c7                             371  c6                             745 
    x52       c1                             359  c4                             129 
    x52       c0                             755  c9                             602 
    x52       Obj                            815 
    x53       c5                             236  c2                             266 
    x53       c6                             603  c0                             787 
    x53       c7                             799  c1                             492 
    x53       c4                             745  c3                             803 
    x53       Obj                            791  c9                             787 
    x53       c8                             992 
    x54       c1                             224  c8                             575 
    x54       c3                             844  c6                             106 
    x54       c5                             271  c0                             520 
    x54       c9                             318  Obj                            559 
    x54       c7                             262  c4                             886 
    x54       c2                             806 
    x55       c5                             246  c4                              64 
    x55       c9                             886  Obj                            882 
    x55       c6                             102  c0                             451 
    x55       c7                             331  c1                              79 
    x55       c2                             655  c8                             881 
    x55       c3                             374 
    x56       Obj                            561  c4                             200 
    x56       c3                             221  c5                             297 
    x56       c8                             323  c0                             728 
    x56       c2                             964  c9                             593 
    x56       c1                             488  c7                             882 
    x56       c6                             523 
    x57       c6                             386  c5                             784 
    x57       c9                              38  c1                             547 
    x57       c8                             636  Obj                            869 
    x57       c2                             590  c3                             347 
    x57       c7                             504  c4                             586 
    x57       c0                             229 
    x58       c8                              72  c9                             960 
    x58       c0                             601  c4                             249 
    x58       Obj                            862  c3                             309 
    x58       c2                             900  c1                             102 
    x58       c5                             507  c6                             687 
    x58       c7                             630 
    x59       c5                             194  c3                             435 
    x59       c7                             468  c6                             284 
    x59       c9                             423  c1                             926 
    x59       c4                             716  c2                             720 
    x59       c8                             102  c0                              26 
    x59       Obj                            751 
    x60       c6                             242  c1                             278 
    x60       c5                             141  c9                             776 
    x60       c8                             803  c0                             514 
    x60       c2                             122  c4                             648 
    x60       Obj                            534  c7                             644 
    x60       c3                             658 
    x61       c6                             119  c5                             485 
    x61       c2                             272  Obj                            844 
    x61       c9                             798  c8                             457 
    x61       c7                             636  c4                             485 
    x61       c3                             666  c1                             924 
    x61       c0                             922 
    x62       c2                             316  c6                             441 
    x62       c9                             297  c0                             312 
    x62       c5                             280  c8                             618 
    x62       c7                             377  c4                             850 
    x62       Obj                            759  c1                             369 
    x62       c3                             119 
    x63       Obj                            682  c4                             152 
    x63       c6                             335  c7                             861 
    x63       c2                             178  c8                             588 
    x63       c5                             342  c3                             590 
    x63       c9                              41  c0                             195 
    x63       c1                             327 
    x64       c2                             496  c7                             511 
    x64       c5                             440  c6                             821 
    x64       c9                             131  c8                             453 
    x64       c1                             944  c0                             222 
    x64       c3                             510  Obj                            752 
    x64       c4                             937 
    x65       c4                              25  c8                             360 
    x65       Obj                            467  c2                             820 
    x65       c3                              44  c6                             498 
    x65       c5                             509  c7                             712 
    x65       c1                             864  c9                             547 
    x65       c0                             142 
    x66       Obj                            895  c2                             208 
    x66       c6                             202  c9                             992 
    x66       c3                             352  c1                             299 
    x66       c5                             465  c7                             487 
    x66       c0                             588  c4                             867 
    x66       c8                             603 
    x67       c8                             881  c3                             273 
    x67       c7                             688  c5                             602 
    x67       c2                             852  c9                              27 
    x67       Obj                            947  c1                             110 
    x67       c4                             561  c0                             452 
    x67       c6                             724 
    x68       c7                             593  Obj                           1020 
    x68       c9                             491  c0                             487 
    x68       c1                             226  c2                             747 
    x68       c6                             278  c4                             818 
    x68       c5                             790  c8                             246 
    x68       c3                             766 
    x69       c7                             973  c3                             259 
    x69       c0                             947  c1                             256 
    x69       c4                             898  c8                             480 
    x69       c5                             941  c9                             345 
    x69       Obj                            838  c6                             708 
    x69       c2                             579 
    x70       c7                             970  c6                             726 
    x70       c3                             919  c5                              90 
    x70       c8                             166  c2                             259 
    x70       c9                             339  Obj                            762 
    x70       c4                             348  c0                             610 
    x70       c1                             956 
    x71       c4                             678  c8                             849 
    x71       c3                             902  c0                             870 
    x71       c1                             229  c7                             566 
    x71       c6                             530  Obj                            722 
    x71       c5                             994  c2                             444 
    x71       c9                             560 
    x72       c0                             503  c3                             872 
    x72       Obj                           1031  c1                             214 
    x72       c8                             940  c7                             706 
    x72       c5                             816  c2                             717 
    x72       c6                             554  c4                             254 
    x72       c9                             603 
    x73       c7                             208  c2                             150 
    x73       Obj                            583  c9                             337 
    x73       c1                             531  c3                             294 
    x73       c5                             366  c8                             828 
    x73       c6                             655  c0                             654 
    x73       c4                              15 
    x74       c2                             325  c5                             759 
    x74       c7                             859  c6                             774 
    x74       c8                             224  c9                             827 
    x74       Obj                            949  c0                             219 
    x74       c3                             772  c4                               1 
    x74       c1                             317 
    x75       c6                             760  c7                             627 
    x75       c5                             282  c9                             795 
    x75       c8                             781  c2                             300 
    x75       Obj                            638  c4                             488 
    x75       c1                             682  c3                             170 
    x75       c0                             889 
    x76       Obj                            732  c5                             232 
    x76       c7                             377  c4                             828 
    x76       c2                             788  c6                             239 
    x76       c0                             456  c8                             376 
    x76       c9                             993  c3                             454 
    x76       c1                              22 
    x77       c1                             593  c5                             356 
    x77       c8                             322  c2                             257 
    x77       Obj                            839  c4                             156 
    x77       c3                             238  c9                             118 
    x77       c7                             657  c0                             588 
    x77       c6                             923 
    x78       c3                               7  c4                             506 
    x78       c8                             927  Obj                            485 
    x78       c6                             314  c2                             448 
    x78       c0                             533  c7                              24 
    x78       c9                             800  c1                             315 
    x78       c5                             735 
    x79       c5                             640  c9                             865 
    x79       c4                             705  c1                             740 
    x79       c8                             294  c0                             594 
    x79       c2                             439  c3                             461 
    x79       c6                             562  Obj                           1088 
    x79       c7                             926 
    x80       c7                             579  c2                             774 
    x80       c6                               2  Obj                            749 
    x80       c5                             725  c9                             525 
    x80       c8                             885  c3                             171 
    x80       c0                             216  c4                             365 
    x80       c1                             740 
    x81       c3                             567  c8                             812 
    x81       c6                             192  c4                             430 
    x81       c0                             116  c9                             199 
    x81       Obj                            795  c1                             899 
    x81       c5                             833  c7                             660 
    x81       c2                             763 
    x82       c2                             828  c1                             280 
    x82       c0                             771  c8                             491 
    x82       c9                             588  c6                             563 
    x82       c3                             920  c7                             890 
    x82       c5                             264  c4                             222 
    x82       Obj                            611 
    x83       Obj                            796  c3                             686 
    x83       c8                             113  c5                             909 
    x83       c4                              54  c1                             276 
    x83       c2                             146  c7                             869 
    x83       c6                             338  c0                             341 
    x83       c9                             448 
    x84       c2                             157  c5                             318 
    x84       c4                              35  c7                             867 
    x84       c6                             686  Obj                            813 
    x84       c9                             987  c0                             288 
    x84       c1                             597  c8                             163 
    x84       c3                             991 
    x85       c0                             580  c5                             961 
    x85       c3                             627  c6                             639 
    x85       c7                             106  c8                             382 
    x85       Obj                            813  c9                             522 
    x85       c1                             679  c2                             639 
    x85       c4                             466 
    x86       c7                             752  Obj                            729 
    x86       c0                             508  c4                             246 
    x86       c1                             297  c3                             481 
    x86       c6                              75  c2                             679 
    x86       c8                             282  c9                              24 
    x86       c5                             777 
    x87       c0                             994  c7                             394 
    x87       c6                             613  Obj                            591 
    x87       c2                             170  c9                              67 
    x87       c5                             337  c1                             750 
    x87       c4                             356  c3                             897 
    x87       c8                              88 
    x88       c2                             759  c1                              89 
    x88       c4                             134  c6                             483 
    x88       c5                              86  Obj                            582 
    x88       c3                             498  c8                             562 
    x88       c9                             376  c0                             452 
    x88       c7                               5 
    x89       c1                             964  c9                             619 
    x89       c2                             404  c7                             412 
    x89       c0                             240  c8                             908 
    x89       Obj                            671  c5                             100 
    x89       c6                             280  c4                             124 
    x89       c3                             366 
    x90       c7                             205  c3                             989 
    x90       Obj                            877  c6                             429 
    x90       c0                             428  c8                             734 
    x90       c1                             265  c2                             642 
    x90       c4                             787  c9                             488 
    x90       c5                             106 
    x91       c5                              56  c6                               4 
    x91       c0                             993  c4                             220 
    x91       c7                             431  c2                             737 
    x91       c9                             123  c8                             731 
    x91       Obj                            500  c1                             228 
    x91       c3                             880 
    x92       c0                             656  c4                             166 
    x92       c1                             852  c9                             566 
    x92       c8                             526  c6                             540 
    x92       c3                              98  c5                             421 
    x92       Obj                            808  c2                             594 
    x92       c7                             441 
    x93       c0                             150  c8                             673 
    x93       Obj                            490  c9                             415 
    x93       c4                             665  c1                              81 
    x93       c5                             477  c3                             313 
    x93       c6                             481  c7                             444 
    x93       c2                             861 
    x94       c0                             349  c9                             960 
    x94       Obj                            786  c4                             639 
    x94       c8                             205  c1                             712 
    x94       c6                             180  c7                             762 
    x94       c3                              55  c5                              20 
    x94       c2                             252 
    x95       Obj                            532  c1                             655 
    x95       c3                             258  c9                             237 
    x95       c4                             478  c0                              61 
    x95       c6                             352  c5                             985 
    x95       c8                              91  c2                             816 
    x95       c7                             451 
    x96       c8                             511  c3                             692 
    x96       c9                             680  c5                             784 
    x96       c4                             136  c0                             759 
    x96       c6                             695  c7                             183 
    x96       c2                             161  Obj                            607 
    x96       c1                              26 
    x97       c1                             598  c3                             743 
    x97       c4                              11  c9                             459 
    x97       c6                             603  c7                             572 
    x97       c0                             451  Obj                            530 
    x97       c2                              23  c8                             127 
    x97       c5                             637 
    x98       c6                             325  Obj                            732 
    x98       c2                             695  c9                             115 
    x98       c5                             760  c0                             347 
    x98       c7                             299  c4                             204 
    x98       c8                             731  c1                             595 
    x98       c3                             827 
    x99       c3                             590  c4                             118 
    x99       c5                              80  c2                             700 
    x99       c8                             243  Obj                            971 
    x99       c0                             938  c7                             394 
    x99       c6                             586  c1                             861 
    x99       c9                             358 
    INTEND    'MARKER'                            'INTEND'                           
RHS
    RHS       c0                           38056  c1                           34565 
    RHS       c2                           38861  c3                           39706 
    RHS       c4                           34214  c5                           35901 
    RHS       c6                           35672  c7                           40696 
    RHS       c8                           38240  c9                           38062 
BOUNDS
 BV Bound     x0                                 
 BV Bound     x1                                 
 BV Bound     x2                                 
 BV Bound     x3                                 
 BV Bound     x4                                 
 BV Bound     x5                                 
 BV Bound     x6                                 
 BV Bound     x7                                 
 BV Bound     x8                                 
 BV Bound     x9                                 
 BV Bound     x10                                
 BV Bound     x11                                
 BV Bound     x12                                
 BV Bound     x13                                
 BV Bound     x14                                
 BV Bound     x15                                
 BV Bound     x16                                
 BV Bound     x17                                
 BV Bound     x18                                
 BV Bound     x19                                
 BV Bound     x20                                
 BV Bound     x21                                
 BV Bound     x22                                
 BV Bound     x23                                
 BV Bound     x24                                
 BV Bound     x25                                
 BV Bound     x26                                
 BV Bound     x27                                
 BV Bound     x28                                
 BV Bound     x29                                
 BV Bound     x30                                
 BV Bound     x31                                
 BV Bound     x32                                
 BV Bound     x33                                
 BV Bound     x34                                
 BV Bound     x35                                
 BV Bound     x36                                
 BV Bound     x37                                
 BV Bound     x38                                
 BV Bound     x39                                
 BV Bound     x40                                
 BV Bound     x41                                
 BV Bound     x42                                
 BV Bound     x43                                
 BV Bound     x44                                
 BV Bound     x45                                
 BV Bound     x46                                
 BV Bound     x47                                
 BV Bound     x48                                
 BV Bound     x49                                
 BV Bound     x50                                
 BV Bound     x51                                
 BV Bound     x52                                
 BV Bound     x53                                
 BV Bound     x54                                
 BV Bound     x55                                
 BV Bound     x56                                
 BV Bound     x57                                
 BV Bound     x58                                
 BV Bound     x59                                
 BV Bound     x60                                
 BV Bound     x61                                
 BV Bound     x62                                
 BV Bound     x63                                
 BV Bound     x64                                
 BV Bound     x65                                
 BV Bound     x66                                
 BV Bound     x67                                
 BV Bound     x68                                
 BV Bound     x69                                
 BV Bound     x70                                
 BV Bound     x71                                
 BV Bound     x72                                
 BV Bound     x73                                
 BV Bound     x74                                
 BV Bound     x75                                
 BV Bound     x76                                
 BV Bound     x77                                
 BV Bound     x78                                
 BV Bound     x79                                
 BV Bound     x80                                
 BV Bound     x81                                
 BV Bound     x82                                
 BV Bound     x83                                
 BV Bound     x84                                
 BV Bound     x85                                
 BV Bound     x86                                
 BV Bound     x87                                
 BV Bound     x88                                
 BV Bound     x89                                
 BV Bound     x90                                
 BV Bound     x91                                
 BV Bound     x92                                
 BV Bound     x93                                
 BV Bound     x94                                
 BV Bound     x95                                
 BV Bound     x96                                
 BV Bound     x97                                
 BV Bound     x98                                
 BV Bound     x99                                
ENDATA