* SCIP STATISTICS
*   Problem name     : mknap_14
*   Variables        : 100 (100 binary, 0 integer, 0 implicit integer, 0 continuous)
*   Constraints      : 10
NAME          mknap_14
OBJSENSE
  MAX
ROWS
 N  Obj 
 L  c0 
 L  c1 
 L  c2 
 L  c3 
 L  c4 
 L  c5 
 L  c6 
 L  c7 
 L  c8 
 L  c9 
COLUMNS
    INTSTART  'MARKER'                            'INTORG'                           
    x0        Obj                            460  c5                             183 
    x0        c4                             204  c6                             517 
    x0        c3                             796  c7                              78 
    x0        c2                             107  c8                             209 
    x0        c1                             862  c9                             508 
    x0        c0                             928 
    x1        Obj                            630  c5                             284 
    x1        c4                             259  c6                             190 
    x1        c3                             448  c7                             630 
    x1        c2                             302  c8                              28 
    x1        c1                             618  c9                             415 
    x1        c0                             278 
    x2        c9                             722  c5                             303 
    x2        Obj                            640  c3                             623 
    x2        c1                             161  c4                             673 
    x2        c0                             856  c8                             678 
    x2        c7                             839  c2                             410 
    x2        c6                             948 
    x3        c9                             491  c8                             808 
    x3        c2                             832  c1                             108 
    x3        c6                             245  c7                             274 
    x3        c3                             974  Obj                            700 
    x3        c4                             746  c0                             450 
    x3        c5                             648 
    x4        c4                             699  c3                             752 
    x4        c0                             881  c6                             722 
    x4        Obj                            685  c1                             432 
    x4        c7                             760  c2                             351 
    x4        c5                             454  c8                             719 
    x4        c9                             374 
    x5        c8                             668  c3                             555 
    x5        c1                             390  c5                             671 
    x5        c6                             618  c7                             928 
    x5        Obj                            867  c4                             337 
    x5        c0                             507  c9                             438 
    x5        c2                             654 
    x6        Obj                            694  c3                             535 
    x6        c8                             285  c4                             386 
    x6        c0                             868  c7                              53 
    x6        c5                             221  c9                             191 
    x6        c1                             442  c2                              60 
    x6        c6                             757 
    x7        c9                              37  c5                             895 
    x7        c1                             339  c7                             957 
    x7        c2                             344  c4                             190 
    x7        Obj                            629  c8                             108 
    x7        c0                             117  c3                             726 
    x7        c6                             555 
    x8        c5                             874  c7                             660 
    x8        c2                             727  c4                             466 
    x8        c1                             108  c6                             487 
    x8        c0                             164  c8                             415 
    x8        Obj                            623  c3                             645 
    x8        c9                             865 
    x9        c9                             618  c4                             832 
    x9        c8                               9  c6                             666 
    x9        c0                             467  Obj                            723 
    x9        c1                             391  c3                             678 
    x9        c7                             359  c5                             493 
    x9        c2                              77 
    x10       c9                             483  c3                             500 
    x10       Obj                            785  c4                             871 
    x10       c8                             220  c6                             210 
    x10       c0                             503  c5                             502 
    x10       c7                             457  c2                             161 
    x10       c1                             641 
    x11       c1                             342  c8                             136 
    x11       c0                             259  c9                             455 
    x11       c2                             221  c7                             692 
    x11       c3                             624  c6                             833 
    x11       c4                             641  c5                             829 
    x11       Obj                            732 
    x12       Obj                           1032  c5                             325 
    x12       c3                             711  c1                             251 
    x12       c7                             702  c9                             878 
    x12       c8                             484  c0                             785 
    x12       c6                             811  c2                             878 
    x12       c4                             566 
    x13       c5                             825  c8                             512 
    x13       c3                             401  c7                             249 
    x13       c9                             270  c0                             499 
    x13       c1                             201  c6                             406 
    x13       c2                             516  c4                             263 
    x13       Obj                            729 
    x14       Obj                            504  c4                             220 
    x14       c5                             111  c6                             432 
    x14       c7                             214  c1                             639 
    x14       c2                             156  c0                             751 
    x14       c3                             786  c9                              58 
    x14       c8                             719 
    x15       c9                             753  c1                             471 
    x15       c2                             963  c7                             105 
    x15       c6                             643  c8                             463 
    x15       Obj                           1019  c3                             726 
    x15       c0                             736  c5                             717 
    x15       c4                             399 
    x16       c3                             984  Obj                            755 
    x16       c5                             342  c9                             492 
    x16       c1                             174  c4                             819 
    x16       c7                             886  c6                             667 
    x16       c0                             514  c8                             697 
    x16       c2                             885 
    x17       c7                             129  c3                             488 
    x17       c9                             815  Obj                            617 
    x17       c4                             694  c2                             970 
    x17       c1                             771  c5                             514 
    x17       c6                             340  c0                             471 
    x17       c8                             297 
    x18       c8                             536  c1                             826 
    x18       c5                             130  c6                             893 
    x18       c0                             935  c3                             854 
    x18       c9                             682  Obj                           1126 
    x18       c7                             299  c2                             431 
    x18       c4                             828 
    x19       Obj                            338  c5                             488 
    x19       c8                             136  c0                              85 
    x19       c9                             132  c2                              59 
    x19       c6                             887  c3                             162 
    x19       c4                             400  c7                             124 
    x19       c1                             817 
    x20       c1                             758  c7                             704 
    x20       c3                             817  c4                             643 
    x20       Obj                            646  c9                             625 
    x20       c8                             310  c0                             765 
    x20       c5                              45  c2                             302 
    x20       c6                             490 
    x21       c9                             745  c1                             603 
    x21       c2                             280  c4                             707 
    x21       Obj                            670  c5                             172 
    x21       c0                             987  c6                             981 
    x21       c3                             890  c8                             248 
    x21       c7                             438 
    x22       c8                             755  Obj                            941 
    x22       c0                             550  c1                             452 
    x22       c9                             411  c2                             612 
    x22       c5                             394  c7                             857 
    x22       c4                             733  c3                             847 
    x22       c6                             191 
    x23       c8                             488  c6                             997 
    x23       c0                             386  Obj                            850 
    x23       c9                             220  c1                              66 
    x23       c2                             605  c5                             330 
    x23       c7                             721  c4                             347 
    x23       c3                             347 
    x24       c3                              26  c0                             936 
    x24       c6                             170  c9                              49 
    x24       Obj                            386  c1                             313 
    x24       c7                              86  c2                             470 
    x24       c4                             877  c5                             166 
    x24       c8                              37 
    x25       c9                             911  c0                             764 
    x25       c3                             257  c1                             230 
    x25       c7                             633  c8                             237 
    x25       Obj                            810  c6                             221 
    x25       c5                             292  c4                             727 
    x25       c2                              35 
    x26       Obj                            557  c5                             395 
    x26       c9                             522  c2                             233 
    x26       c0                             611  c3                             691 
    x26       c7                             442  c8                              85 
    x26       c4                             428  c1                             430 
    x26       c6                             189 
    x27       c5                             234  c0                             147 
    x27       c3                             165  Obj                            568 
    x27       c7                             391  c6                              63 
    x27       c1                             881  c8                             939 
    x27       c9                             405  c4                             563 
    x27       c2                             301 
    x28       c1                             539  c9                             847 
    x28       Obj                            697  c7                             195 
    x28       c6                             213  c2                             493 
    x28       c3                             811  c8                             297 
    x28       c0                             104  c4                             707 
    x28       c5                             672 
    x29       c8                             723  c9                             933 
    x29       c7                             825  c6                             579 
    x29       c0                             788  Obj                            771 
    x29       c4                             142  c3                             462 
    x29       c2                             756  c5                             573 
    x29       c1                             850 
    x30       c0                              45  c6                             599 
    x30       c3                             658  c7                             321 
    x30       c1                             235  Obj                            802 
    x30       c4                             944  c8                              75 
    x30       c9                             978  c5                             420 
    x30       c2                             715 
    x31       c7                             500  c4                             812 
    x31       c1                             678  c2                             781 
    x31       c0                             661  Obj                           1042 
    x31       c6                             528  c8                             762 
    x31       c3                             922  c5                             992 
    x31       c9                              54 
    x32       c7                             870  c3                             129 
    x32       c4                             322  c6                             714 
    x32       c2                             494  c1                              34 
    x32       c5                             539  c9                             454 
    x32       c8                             307  c0                             552 
    x32       Obj                            584 
    x33       c2                             233  c0                             991 
    x33       c8                             195  c1                             812 
    x33       c3                              90  c9                             733 
    x33       Obj                            681  c4                             360 
    x33       c7                             230  c6                             652 
    x33       c5                             710 
    x34       c4                             247  c6                             917 
    x34       c9                             114  c0                             212 
    x34       c3                             597  c5                             882 
    x34       c7                             112  c2                              94 
    x34       Obj                            669  c1                              13 
    x34       c8                             109 
    x35       c4                             244  c5                              19 
    x35       c9                               8  c3                             834 
    x35       Obj                            530  c7                             345 
    x35       c8                             324  c2                             717 
    x35       c1                             627  c0                             407 
    x35       c6                             174 
    x36       c6                             480  c2                             135 
    x36       c1                             487  c9                             198 
    x36       c7                             296  c8                             645 
    x36       Obj                            526  c5                             355 
    x36       c4                             135  c3                             839 
    x36       c0                             794 
    x37       c4                             666  c9                             771 
    x37       c8                             630  c6                             944 
    x37       c2                             786  c1                             761 
    x37       Obj                            573  c5                             568 
    x37       c7                             103  c0                             353 
    x37       c3                              77 
    x38       c0                              57  Obj                            594 
    x38       c2                             378  c4                             675 
    x38       c1                             624  c6                             954 
    x38       c9                             557  c7                             726 
    x38       c8                              79  c5                             715 
    x38       c3                             549 
    x39       c8                             933  c6                             383 
    x39       Obj                            872  c0                             961 
    x39       c5                             978  c1                             239 
    x39       c7                             329  c2                             765 
    x39       c9                              77  c4                             273 
    x39       c3                              67 
    x40       c3                             994  c9                             351 
    x40       c7                             398  c1                             350 
    x40       c4                             646  c2                              16 
    x40       c6                             884  c0                             350 
    x40       c8                             827  c5                             295 
    x40       Obj                            536 
    x41       Obj                            732  c0                               4 
    x41       c8                             293  c7                             276 
    x41       c4                              52  c1                             661 
    x41       c6                             529  c5                             392 
    x41       c2                             155  c9                             641 
    x41       c3                             407 
    x42       c8                             227  c0                             782 
    x42       c9                             212  c5                             183 
    x42       c7                             222  Obj                            537 
    x42       c3                             395  c6                             231 
    x42       c2                             550  c1                             807 
    x42       c4                             274 
    x43       c1                             124  c8                             135 
    x43       c0                             517  c9                             137 
    x43       c6                             869  c3                             594 
    x43       c4                             671  Obj                            520 
    x43       c5                             238  c2                             454 
    x43       c7                             568 
    x44       c7                             597  Obj                            770 
    x44       c8                             108  c1                             949 
    x44       c2                             796  c0                             622 
    x44       c9                             511  c3                             186 
    x44       c6                             322  c4                             938 
    x44       c5                             519 
    x45       c5                             281  Obj                            469 
    x45       c1                             196  c2                             445 
    x45       c0                             394  c7                             219 
    x45       c4                             192  c9                             178 
    x45       c8                             729  c3                             519 
    x45       c6                             431 
    x46       c8                              16  c3                             963 
    x46       c6                             671  c5                              63 
    x46       c7                             278  c1                             890 
    x46       c2                             953  c9                             675 
    x46       c0                             205  c4                             881 
    x46       Obj                            756 
    x47       c3                             685  c1                              69 
    x47       c2                             876  c0                              96 
    x47       c4                             558  c6                             498 
    x47       c9                             186  c8                              82 
    x47       c5                             489  Obj                            448 
    x47       c7                             261 
    x48       c8                             891  Obj                            972 
    x48       c6                             149  c4                             955 
    x48       c2                             416  c9                             788 
    x48       c7                             449  c0                             805 
    x48       c5                             945  c3                             185 
    x48       c1                             444 
    x49       c5                             335  c7                             268 
    x49       c3                             439  c0                             198 
    x49       c1                             772  c8                              49 
    x49       c9                             735  c4                             264 
    x49       c2                              19  Obj                            478 
    x49       c6                             189 
    x50       c3                             927  c8                             488 
    x50       c9                             342  c4                             382 
    x50       c2                             332  c7                             116 
    x50       c5                             746  c6                             446 
    x50       Obj                            852  c0                             321 
    x50       c1                             757 
    x51       c6                             130  c8                             540 
    x51       c2                             501  c7                             520 
    x51       c4                             476  c1                              74 
    x51       c3                             654  c0                             623 
    x51       c9                             262  c5                             362 
    x51       Obj                            765 
    x52       c3                              14  c8                             294 
    x52       c5                             195  c2                             806 
    x52       c7                             307  c6                             151 
    x52       c1                              80  c4                             483 
    x52       c0                             995  c9                               8 
    x52       Obj                            661 
    x53       c5                             475  c2                             316 
    x53       c6                             305  c0                             235 
    x53       c7                              91  c1                             534 
    x53       c4                             852  c3                             620 
    x53       Obj                            788  c9                             747 
    x53       c8                             903 
    x54       c1                              47  c8                             484 
    x54       c3                             692  c6                             184 
    x54       c5                             883  c0                             247 
    x54       c9                             617  Obj                            653 
    x54       c7                             696  c4                             799 
    x54       c2                             393 
    x55       c5                             387  c4                             392 
    x55       c9                             504  Obj                            601 
    x55       c6                             354  c0                             801 
    x55       c7                             226  c1                             502 
    x55       c2                             662  c8                             625 
    x55       c3                             327 
    x56       Obj                            891  c4                             750 
    x56       c3                             375  c5                             910 
    x56       c8                             443  c0                             994 
    x56       c2                             593  c9                              23 
    x56       c1                             719  c7                             798 
    x56       c6                               7 
    x57       c6                             983  c5                             674 
    x57       c9                             127  c1                              25 
    x57       c8                             618  Obj                           1008 
    x57       c2                             357  c3                             326 
    x57       c7                             440  c4                             821 
    x57       c0                             754 
    x58       c8                             865  c9                              42 
    x58       c0                             883  c4                             158 
    x58       Obj                            947  c3                             215 
    x58       c2                             842  c1                             687 
    x58       c5                             621  c6                             787 
    x58       c7                             921 
    x59       c5                             617  c3                             717 
    x59       c7                             439  c6                             596 
    x59       c9                             170  c1                             311 
    x59       c4                             658  c2                             281 
    x59       c8                             801  c0                             353 
    x59       Obj                            576 
    x60       c6                             286  c1                             659 
    x60       c5                             543  c9                             794 
    x60       c8                             782  c0                             837 
    x60       c2                             214  c4                             645 
    x60       Obj                           1115  c7                            1000 
    x60       c3                             440 
    x61       c6                             794  c5                             876 
    x61       c2                             885  Obj                           1054 
    x61       c9                             581  c8                             585 
    x61       c7                             232  c4                             990 
    x61       c3                             835  c1                             421 
    x61       c0                             780 
    x62       c2                             337  c6                             444 
    x62       c9                             360  c0                             641 
    x62       c5                             434  c8                             375 
    x62       c7                               9  c4                             625 
    x62       Obj                            917  c1                             630 
    x62       c3                             414 
    x63       Obj                            809  c4                             700 
    x63       c6                             807  c7                             340 
    x63       c2                             753  c8                              37 
    x63       c5                             673  c3                               7 
    x63       c9                             834  c0                             224 
    x63       c1                             251 
    x64       c2                             654  c7                             721 
    x64       c5                             500  c6                             807 
    x64       c9                             713  c8                             484 
    x64       c1                             815  c0                             485 
    x64       c3                             197  Obj                            552 
    x64       c4                               2 
    x65       c4                             555  c8                             236 
    x65       Obj                            703  c2                             829 
    x65       c3                             652  c6                             423 
    x65       c5                             893  c7                             186 
    x65       c1                             512  c9                             565 
    x65       c0                             155 
    x66       Obj                            838  c2                             211 
    x66       c6                             331  c9                             175 
    x66       c3                             590  c1                             541 
    x66       c5                             341  c7                             640 
    x66       c0                             202  c4                             347 
    x66       c8                             485 
    x67       c8                             175  c3                             819 
    x67       c7                             440  c5                             962 
    x67       c2                             777  c9                             732 
    x67       Obj                            939  c1                             346 
    x67       c4                             993  c0                             196 
    x67       c6                             425 
    x68       c7                             646  Obj                            660 
    x68       c9                             714  c0                             219 
    x68       c1                             395  c2                             630 
    x68       c6                             914  c4                             568 
    x68       c5                             296  c8                             996 
    x68       c3                             848 
    x69       c7                             121  c3                             741 
    x69       c0                             905  c1                             747 
    x69       c4                             448  c8                             530 
    x69       c5                             261  c9                             488 
    x69       Obj                            587  c6                             513 
    x69       c2                             149 
    x70       c7                             953  c6                             557 
    x70       c3                             728  c5                             758 
    x70       c8                             102  c2                             243 
    x70       c9                             635  Obj                            663 
    x70       c4                             165  c0                             235 
    x70       c1                             221 
    x71       c4                             959  c8                              92 
    x71       c3                              69  c0                             635 
    x71       c1                             520  c7                             965 
    x71       c6                             796  Obj                            857 
    x71       c5                              30  c2                             319 
    x71       c9                             379 
    x72       c0                             733  c3                             844 
    x72       Obj                            573  c1                             695 
    x72       c8                             402  c7                              90 
    x72       c5                             887  c2                              83 
    x72       c6                             631  c4                             738 
    x72       c9                             596 
    x73       c7                             300  c2                             552 
    x73       Obj                            714  c9                             512 
    x73       c1                             914  c3                             261 
    x73       c5                             167  c8                             577 
    x73       c6                             563  c0                             701 
    x73       c4                             379 
    x74       c2                             816  c5                             647 
    x74       c7                             767  c6                             949 
    x74       c8                             705  c9                             368 
    x74       Obj                            684  c0                             300 
    x74       c3                             266  c4                              98 
    x74       c1                             272 
    x75       c6                              33  c7                             227 
    x75       c5                             272  c9                             752 
    x75       c8                             883  c2                             620 
    x75       Obj                            781  c4                             950 
    x75       c1                             135  c3                             446 
    x75       c0                             997 
    x76       Obj                            847  c5                             328 
    x76       c7                             856  c4                             320 
    x76       c2                             366  c6                             426 
    x76       c0                              65  c8                             739 
    x76       c9                             354  c3                             246 
    x76       c1                             777 
    x77       c1                             509  c5                             524 
    x77       c8                             746  c2                             379 
    x77       Obj                            997  c4                             837 
    x77       c3                             418  c9                             860 
    x77       c7                             398  c0                             769 
    x77       c6                             402 
    x78       c3                             807  c4                             924 
    x78       c8                             196  Obj                            582 
    x78       c6                             162  c2                             190 
    x78       c0                             630  c7                             341 
    x78       c9                             674  c1                             803 
    x78       c5                             464 
    x79       c5                             421  c9                             542 
    x79       c4                             237  c1                             111 
    x79       c8                              10  c0                              28 
    x79       c2                             736  c3                             878 
    x79       c6                             600  Obj                            813 
    x79       c7                             824 
    x80       c7                             379  c2                             931 
    x80       c6                             228  Obj                            885 
    x80       c5                             662  c9                             488 
    x80       c8                             504  c3                             654 
    x80       c0                              75  c4                               1 
    x80       c1                             399 
    x81       c3                             921  c8                             776 
    x81       c6                             279  c4                             667 
    x81       c0                              69  c9                             741 
    x81       Obj                            733  c1                             633 
    x81       c5                             454  c7                             366 
    x81       c2                             112 
    x82       c2                             685  c1                              48 
    x82       c0                             457  c8                              78 
    x82       c9                             970  c6                             366 
    x82       c3                             366  c7                             496 
    x82       c5                             543  c4                             442 
    x82       Obj                            733 
    x83       Obj                            650  c3                             578 
    x83       c8                             357  c5                             963 
    x83       c4                             681  c1                             661 
    x83       c2                             792  c7                             849 
    x83       c6                             370  c0                             213 
    x83       c9                             163 
    x84       c2                             713  c5                             901 
    x84       c4                             835  c7                             801 
    x84       c6                             419  Obj                            583 
    x84       c9                             239  c0                             590 
    x84       c1                              51  c8                             570 
    x84       c3                             681 
    x85       c0                             945  c5                             948 
    x85       c3                             520  c6                             493 
    x85       c7                             975  c8                             165 
    x85       Obj                            936  c9                             442 
    x85       c1                             670  c2                             444 
    x85       c4                             854 
    x86       c7                             269  Obj                            787 
    x86       c0                             144  c4                             430 
    x86       c1                             181  c3                             635 
    x86       c6                             340  c2                             516 
    x86       c8                             343  c9                             388 
    x86       c5                             717 
    x87       c0                             716  c7                             335 
    x87       c6                             356  Obj                            762 
    x87       c2                              80  c9                             846 
    x87       c5                             666  c1                             340 
    x87       c4                             964  c3                              36 
    x87       c8                             965 
    x88       c2                             474  c1                             545 
    x88       c4                             172  c6                             470 
    x88       c5                             148  Obj                            517 
    x88       c3                             516  c8                             986 
    x88       c9                             705  c0                             164 
    x88       c7                             572 
    x89       c1                             678  c9                             131 
    x89       c2                             314  c7                             653 
    x89       c0                             396  c8                             747 
    x89       Obj                            721  c5                              32 
    x89       c6                             359  c4                             836 
    x89       c3                              20 
    x90       c7                             610  c3                             608 
    x90       Obj                            718  c6                             287 
    x90       c0                             158  c8                              72 
    x90       c1                             414  c2                             515 
    x90       c4                             976  c9                             233 
    x90       c5                             296 
    x91       c5                             140  c6                             789 
    x91       c0                             449  c4                             599 
    x91       c7                             906  c2                             990 
    x91       c9                             832  c8                              90 
    x91       Obj                            802  c1                             117 
    x91       c3                             845 
    x92       c0                             653  c4                             310 
    x92       c1                             857  c9                             875 
    x92       c8                             846  c6                             603 
    x92       c3                             104  c5                             271 
    x92       Obj                            853  c2                             887 
    x92       c7                             495 
    x93       c0                             912  c8                             666 
    x93       Obj                           1022  c9                             783 
    x93       c4                             669  c1                             683 
    x93       c5                             769  c3                               9 
    x93       c6                             655  c7                              36 
    x93       c2                             454 
    x94       c0                             828  c9                             911 
    x94       Obj                            609  c4                             733 
    x94       c8                             481  c1                             363 
    x94       c6                             266  c7                             525 
    x94       c3                             841  c5                              52 
    x94       c2                             587 
    x95       Obj                            627  c1                              24 
    x95       c3                             266  c9                             149 
    x95       c4                               8  c0                             892 
    x95       c6                             506  c5                             542 
    x95       c8                             968  c2                             203 
    x95       c7                             607 
    x96       c8                             434  c3                             408 
    x96       c9                             469  c5                             466 
    x96       c4                             804  c0                             313 
    x96       c6                             869  c7                             904 
    x96       c2                             603  Obj                            687 
    x96       c1                             893 
    x97       c1                             374  c3                             877 
    x97       c4                             677  c9                             462 
    x97       c6                             365  c7                             537 
    x97       c0                             193  Obj                            637 
    x97       c2                             698  c8                             319 
    x97       c5                             169 
    x98       c6                             580  Obj                            853 
    x98       c2                             423  c9                             609 
    x98       c5                               2  c0                             874 
    x98       c7                             798  c4                             365 
    x98       c8                             775  c1                             681 
    x98       c3                             978 
    x99       c3                             289  c4                             858 
    x99       c5                             107  c2                             738 
    x99       c8                             315  Obj                            954 
    x99       c0                             289  c7                             273 
    x99       c6                             501  c1                             928 
    x99       c9                             264 
    INTEND    'MARKER'                            'INTEND'                           
RHS
    RHS       c0                           25686  c1                           23714 
    RHS       c2                           24477  c3                           26968 
    RHS       c4                           27804  c5                           23998 
    RHS       c6                           25473  c7                           24026 
    RHS       c8                           22659  c9                           24437 
BOUNDS
 BV Bound     x0                                 
 BV Bound     x1                                 
 BV Bound     x2                                 
 BV Bound     x3                                 
 BV Bound     x4                                 
 BV Bound     x5                                 
 BV Bound     x6                                 
 BV Bound     x7                                 
 BV Bound     x8                                 
 BV Bound     x9                                 
 BV Bound     x10                                
 BV Bound     x11                                
 BV Bound     x12                                
 BV Bound     x13                                
 BV Bound     x14                                
 BV Bound     x15                                
 BV Bound     x16                                
 BV Bound     x17                                
 BV Bound     x18                                
 BV Bound     x19                                
 BV Bound     x20                                
 BV Bound     x21                                
 BV Bound     x22                                
 BV Bound     x23                                
 BV Bound     x24                                
 BV Bound     x25                                
 BV Bound     x26                                
 BV Bound     x27                                
 BV Bound     x28                                
 BV Bound     x29                                
 BV Bound     x30                                
 BV Bound     x31                                
 BV Bound     x32                                
 BV Bound     x33                                
 BV Bound     x34                                
 BV Bound     x35                                
 BV Bound     x36                                
 BV Bound     x37                                
 BV Bound     x38                                
 BV Bound     x39                                
 BV Bound     x40                                
 BV Bound     x41                                
 BV Bound     x42                                
 BV Bound     x43                                
 BV Bound     x44                                
 BV Bound     x45                                
 BV Bound     x46                                
 BV Bound     x47                                
 BV Bound     x48                                
 BV Bound     x49                                
 BV Bound     x50                                
 BV Bound     x51                                
 BV Bound     x52                                
 BV Bound     x53                                
 BV Bound     x54                                
 BV Bound     x55                                
 BV Bound     x56                                
 BV Bound     x57                                
 BV Bound     x58                                
 BV Bound     x59                                
 BV Bound     x60                                
 BV Bound     x61                                
 BV Bound     x62                                
 BV Bound     x63                                
 BV Bound     x64                                
 BV Bound     x65                                
 BV Bound     x66                                
 BV Bound     x67                                
 BV Bound     x68                                
 BV Bound     x69                                
 BV Bound     x70                                
 BV Bound     x71                                
 BV Bound     x72                                
 BV Bound     x73                                
 BV Bound     x74                                
 BV Bound     x75                                
 BV Bound     x76                                
 BV Bound     x77                                
 BV Bound     x78                                
 BV Bound     x79                                
 BV Bound     x80                                
 BV Bound     x81                                
 BV Bound     x82                                
 BV Bound     x83                                
 BV Bound     x84                                
 BV Bound     x85                                
 BV Bound     x86                                
 BV Bound     x87                                
 BV Bound     x88                                
 BV Bound     x89                                
 BV Bound     x90                                
 BV Bound     x91                                
 BV Bound     x92                                
 BV Bound     x93                                
 BV Bound     x94                                
 BV Bound     x95                                
 BV Bound     x96                                
 BV Bound     x97                                
 BV Bound     x98                                
 BV Bound     x99                                
ENDATA