* SCIP STATISTICS
*   Problem name     : mknap_7
*   Variables        : 100 (100 binary, 0 integer, 0 implicit integer, 0 continuous)
*   Constraints      : 10
NAME          mknap_7
OBJSENSE
  MAX
ROWS
 N  Obj 
 L  c0 
 L  c1 
 L  c2 
 L  c3 
 L  c4 
 L  c5 
 L  c6 
 L  c7 
 L  c8 
 L  c9 
COLUMNS
    INTSTART  'MARKER'                            'INTORG'                           
    x0        Obj                            778  c5                             677 
    x0        c4                             398  c6                             420 
    x0        c3                             861  c7                             387 
    x0        c2                            1000  c8                             744 
    x0        c1                             794  c9                             890 
    x0        c0                             823 
    x1        Obj                            748  c5                             581 
    x1        c4                             118  c6                             939 
    x1        c3                             950  c7                              21 
    x1        c2                             343  c8                              27 
    x1        c1                             167  c9                             786 
    x1        c0                             297 
    x2        c9                             512  c5                              34 
    x2        Obj                            567  c3                             605 
    x2        c1                              88  c4                             923 
    x2        c0                             543  c8                             118 
    x2        c7                             399  c2                             896 
    x2        c6                             545 
    x3        c9                             776  c8                             692 
    x3        c2                             319  c1                             929 
    x3        c6                             600  c7                             995 
    x3        c3                             262  Obj                            769 
    x3        c4                             898  c0                             954 
    x3        c5                             600 
    x4        c4                             253  c3                             408 
    x4        c0                             358  c6                             315 
    x4        Obj                            412  c1                             206 
    x4        c7                             728  c2                             451 
    x4        c5                              33  c8                             434 
    x4        c9                             430 
    x5        c8                              99  c3                             125 
    x5        c1                             777  c5                             214 
    x5        c6                             957  c7                             917 
    x5        Obj                            605  c4                             733 
    x5        c0                             187  c9                             396 
    x5        c2                             952 
    x6        Obj                            530  c3                             256 
    x6        c8                             950  c4                             834 
    x6        c0                             465  c7                             386 
    x6        c5                             823  c9                              57 
    x6        c1                             327  c2                             851 
    x6        c6                             189 
    x7        c9                             505  c5                             669 
    x7        c1                             392  c7                             746 
    x7        c2                              44  c4                             694 
    x7        Obj                            963  c8                             797 
    x7        c0                             477  c3                             522 
    x7        c6                             454 
    x8        c5                             785  c7                             350 
    x8        c2                             623  c4                             105 
    x8        c1                             171  c6                             408 
    x8        c0                             124  c8                             726 
    x8        Obj                            437  c3                             132 
    x8        c9                             493 
    x9        c9                             863  c4                             103 
    x9        c8                             688  c6                             203 
    x9        c0                             709  Obj                            821 
    x9        c1                             881  c3                             955 
    x9        c7                              71  c5                             912 
    x9        c2                             786 
    x10       c9                             456  c3                             914 
    x10       Obj                            772  c4                             127 
    x10       c8                             755  c6                             325 
    x10       c0                             797  c5                             535 
    x10       c7                             919  c2                             785 
    x10       c1                             883 
    x11       c1                             492  c8                             769 
    x11       c0                             685  c9                              44 
    x11       c2                             123  c7                             646 
    x11       c3                             395  c6                             861 
    x11       c4                             960  c5                             231 
    x11       Obj                            937 
    x12       Obj                            638  c5                             145 
    x12       c3                             203  c1                             162 
    x12       c7                             197  c9                             542 
    x12       c8                             136  c0                              37 
    x12       c6                             782  c2                             411 
    x12       c4                             780 
    x13       c5                             491  c8                             363 
    x13       c3                             724  c7                             532 
    x13       c9                             576  c0                             362 
    x13       c1                             774  c6                             156 
    x13       c2                              30  c4                             568 
    x13       Obj                            726 
    x14       Obj                            369  c4                             751 
    x14       c5                             384  c6                             419 
    x14       c7                             235  c1                             198 
    x14       c2                             704  c0                              60 
    x14       c3                             122  c9                             790 
    x14       c8                               5 
    x15       c9                             112  c1                              52 
    x15       c2                             568  c7                             459 
    x15       c6                             994  c8                              68 
    x15       Obj                            887  c3                             689 
    x15       c0                             126  c5                             692 
    x15       c4                             804 
    x16       c3                             822  Obj                            908 
    x16       c5                             946  c9                             206 
    x16       c1                             721  c4                             290 
    x16       c7                             166  c6                              26 
    x16       c0                             834  c8                             271 
    x16       c2                             656 
    x17       c7                             279  c3                             308 
    x17       c9                             748  Obj                            433 
    x17       c4                             334  c2                             447 
    x17       c1                             144  c5                             443 
    x17       c6                             314  c0                             313 
    x17       c8                             305 
    x18       c8                             858  c1                             518 
    x18       c5                             635  c6                             641 
    x18       c0                             912  c3                             564 
    x18       c9                             542  Obj                            989 
    x18       c7                             610  c2                             967 
    x18       c4                             276 
    x19       Obj                            728  c5                             257 
    x19       c8                              67  c0                              22 
    x19       c9                             829  c2                             433 
    x19       c6                             840  c3                             863 
    x19       c4                             952  c7                             190 
    x19       c1                             516 
    x20       c1                             408  c7                              12 
    x20       c3                             116  c4                             897 
    x20       Obj                            863  c9                             297 
    x20       c8                              20  c0                             768 
    x20       c5                             854  c2                             733 
    x20       c6                             140 
    x21       c9                             122  c1                             190 
    x21       c2                             379  c4                             724 
    x21       Obj                            906  c5                             736 
    x21       c0                             343  c6                             683 
    x21       c3                             676  c8                              29 
    x21       c7                             969 
    x22       c8                             981  Obj                            587 
    x22       c0                             547  c1                              86 
    x22       c9                             146  c2                             582 
    x22       c5                             773  c7                             635 
    x22       c4                             397  c3                             744 
    x22       c6                             601 
    x23       c8                             830  c6                             569 
    x23       c0                             288  Obj                            544 
    x23       c9                             398  c1                             360 
    x23       c2                             376  c5                             695 
    x23       c7                             159  c4                              60 
    x23       c3                             248 
    x24       c3                             228  c0                             162 
    x24       c6                              39  c9                             306 
    x24       Obj                            666  c1                             409 
    x24       c7                             186  c2                             583 
    x24       c4                             241  c5                             693 
    x24       c8                             954 
    x25       c9                             701  c0                             426 
    x25       c3                             191  c1                             502 
    x25       c7                              11  c8                             706 
    x25       Obj                            878  c6                             856 
    x25       c5                             351  c4                             983 
    x25       c2                             173 
    x26       Obj                            814  c5                             721 
    x26       c9                             397  c2                              28 
    x26       c0                             167  c3                             651 
    x26       c7                             866  c8                             291 
    x26       c4                             768  c1                             757 
    x26       c6                             119 
    x27       c5                             573  c0                             693 
    x27       c3                             539  Obj                            697 
    x27       c7                             645  c6                             356 
    x27       c1                             214  c8                             683 
    x27       c9                             207  c4                             473 
    x27       c2                             245 
    x28       c1                             875  c9                             347 
    x28       Obj                            867  c7                             294 
    x28       c6                             951  c2                             370 
    x28       c3                             739  c8                             842 
    x28       c0                             124  c4                             991 
    x28       c5                             774 
    x29       c8                             699  c9                             763 
    x29       c7                             576  c6                             728 
    x29       c0                             262  Obj                            803 
    x29       c4                             691  c3                             560 
    x29       c2                             436  c5                             806 
    x29       c1                             569 
    x30       c0                             994  c6                             663 
    x30       c3                             488  c7                             319 
    x30       c1                             865  Obj                            842 
    x30       c4                             290  c8                             993 
    x30       c9                             989  c5                             647 
    x30       c2                             452 
    x31       c7                             278  c4                             315 
    x31       c1                             270  c2                             501 
    x31       c0                             761  Obj                            936 
    x31       c6                             733  c8                             421 
    x31       c3                             677  c5                             985 
    x31       c9                             494 
    x32       c7                             720  c3                             811 
    x32       c4                              97  c6                             413 
    x32       c2                             515  c1                              61 
    x32       c5                             173  c9                             267 
    x32       c8                             588  c0                              95 
    x32       Obj                            834 
    x33       c2                              57  c0                             856 
    x33       c8                             804  c1                             523 
    x33       c3                             279  c9                             543 
    x33       Obj                           1032  c4                             979 
    x33       c7                             550  c6                             266 
    x33       c5                             914 
    x34       c4                             516  c6                             501 
    x34       c9                             191  c0                             253 
    x34       c3                             581  c5                             179 
    x34       c7                             818  c2                             295 
    x34       Obj                            779  c1                             273 
    x34       c8                             616 
    x35       c4                             734  c5                             219 
    x35       c9                              91  c3                             114 
    x35       Obj                            840  c7                             569 
    x35       c8                             873  c2                             476 
    x35       c1                             802  c0                             939 
    x35       c6                             735 
    x36       c6                             524  c2                             465 
    x36       c1                             266  c9                             883 
    x36       c7                             854  c8                             821 
    x36       Obj                            960  c5                             398 
    x36       c4                             241  c3                             578 
    x36       c0                             411 
    x37       c4                             171  c9                              62 
    x37       c8                             117  c6                             820 
    x37       c2                             395  c1                              11 
    x37       Obj                            845  c5                             633 
    x37       c7                             856  c0                             844 
    x37       c3                             551 
    x38       c0                             464  Obj                            705 
    x38       c2                             672  c4                             870 
    x38       c1                             812  c6                             977 
    x38       c9                             191  c7                             611 
    x38       c8                             628  c5                             910 
    x38       c3                             749 
    x39       c8                             733  c6                             674 
    x39       Obj                            783  c0                             203 
    x39       c5                             431  c1                             325 
    x39       c7                             689  c2                             571 
    x39       c9                             759  c4                             281 
    x39       c3                             884 
    x40       c3                             390  c9                             903 
    x40       c7                             715  c1                             873 
    x40       c4                             723  c2                             239 
    x40       c6                             945  c0                             839 
    x40       c8                             203  c5                              69 
    x40       Obj                            618 
    x41       Obj                            993  c0                             814 
    x41       c8                             873  c7                             893 
    x41       c4                             549  c1                             414 
    x41       c6                             743  c5                             479 
    x41       c2                             482  c9                             131 
    x41       c3                             569 
    x42       c8                             439  c0                             695 
    x42       c9                             198  c5                             220 
    x42       c7                             692  Obj                            793 
    x42       c3                             840  c6                              94 
    x42       c2                             706  c1                             597 
    x42       c4                             112 
    x43       c1                             421  c8                             414 
    x43       c0                             808  c9                             926 
    x43       c6                             581  c3                             767 
    x43       c4                             869  Obj                           1022 
    x43       c5                              40  c2                             306 
    x43       c7                             545 
    x44       c7                             475  Obj                            891 
    x44       c8                             842  c1                             561 
    x44       c2                             386  c0                             490 
    x44       c9                             292  c3                             849 
    x44       c6                             300  c4                             316 
    x44       c5                             116 
    x45       c5                             377  Obj                            592 
    x45       c1                              52  c2                             277 
    x45       c0                             954  c7                              61 
    x45       c4                             429  c9                             523 
    x45       c8                             554  c3                             438 
    x45       c6                              14 
    x46       c8                             816  c3                             405 
    x46       c6                             471  c5                             914 
    x46       c7                             845  c1                             707 
    x46       c2                             306  c9                             714 
    x46       c0                             731  c4                             413 
    x46       Obj                            730 
    x47       c3                             378  c1                             232 
    x47       c2                             268  c0                             217 
    x47       c4                             108  c6                             234 
    x47       c9                             667  c8                             888 
    x47       c5                             621  Obj                            532 
    x47       c7                             768 
    x48       c8                             555  Obj                            698 
    x48       c6                               8  c4                               8 
    x48       c2                             163  c9                             461 
    x48       c7                             430  c0                             943 
    x48       c5                              73  c3                             993 
    x48       c1                             606 
    x49       c5                             562  c7                              65 
    x49       c3                             743  c0                              21 
    x49       c1                             935  c8                              58 
    x49       c9                             577  c4                             149 
    x49       c2                             972  Obj                            575 
    x49       c6                              82 
    x50       c3                             299  c8                             202 
    x50       c9                             733  c4                             486 
    x50       c2                             651  c7                             834 
    x50       c5                             165  c6                             185 
    x50       Obj                            512  c0                             569 
    x50       c1                             363 
    x51       c6                             660  c8                             172 
    x51       c2                             181  c7                             564 
    x51       c4                             634  c1                             352 
    x51       c3                             134  c0                             255 
    x51       c9                             128  c5                             173 
    x51       Obj                            741 
    x52       c3                              20  c8                             793 
    x52       c5                              37  c2                             436 
    x52       c7                             191  c6                             205 
    x52       c1                             735  c4                             994 
    x52       c0                             498  c9                             262 
    x52       Obj                            647 
    x53       c5                             945  c2                             357 
    x53       c6                             192  c0                             816 
    x53       c7                             616  c1                             679 
    x53       c4                             480  c3                             541 
    x53       Obj                           1042  c9                             151 
    x53       c8                             650 
    x54       c1                             908  c8                             150 
    x54       c3                             185  c6                             902 
    x54       c5                             195  c0                             522 
    x54       c9                             309  Obj                            422 
    x54       c7                               6  c4                             391 
    x54       c2                             269 
    x55       c5                             826  c4                             557 
    x55       c9                             658  Obj                            846 
    x55       c6                             609  c0                             332 
    x55       c7                             493  c1                             559 
    x55       c2                             508  c8                             696 
    x55       c3                             107 
    x56       Obj                            962  c4                             712 
    x56       c3                             934  c5                             237 
    x56       c8                             148  c0                             862 
    x56       c2                             242  c9                             653 
    x56       c1                             748  c7                             308 
    x56       c6                             296 
    x57       c6                             325  c5                             631 
    x57       c9                             129  c1                             448 
    x57       c8                             763  Obj                            754 
    x57       c2                             816  c3                             416 
    x57       c7                              33  c4                             440 
    x57       c0                             335 
    x58       c8                             177  c9                             214 
    x58       c0                             800  c4                             179 
    x58       Obj                            766  c3                             644 
    x58       c2                             422  c1                             366 
    x58       c5                             779  c6                             599 
    x58       c7                             183 
    x59       c5                             655  c3                             479 
    x59       c7                             776  c6                             711 
    x59       c9                             590  c1                             441 
    x59       c4                              59  c2                             353 
    x59       c8                              34  c0                             151 
    x59       Obj                            867 
    x60       c6                             767  c1                             912 
    x60       c5                             422  c9                             244 
    x60       c8                             745  c0                             177 
    x60       c2                             766  c4                             206 
    x60       Obj                            733  c7                             932 
    x60       c3                             178 
    x61       c6                             447  c5                              97 
    x61       c2                             417  Obj                            856 
    x61       c9                             289  c8                             606 
    x61       c7                             356  c4                             245 
    x61       c3                             607  c1                             254 
    x61       c0                             286 
    x62       c2                             764  c6                             310 
    x62       c9                             338  c0                             971 
    x62       c5                             411  c8                             875 
    x62       c7                             879  c4                             337 
    x62       Obj                            957  c1                             866 
    x62       c3                             402 
    x63       Obj                            795  c4                              79 
    x63       c6                             784  c7                             384 
    x63       c2                             549  c8                              75 
    x63       c5                             569  c3                             278 
    x63       c9                             671  c0                              42 
    x63       c1                             811 
    x64       c2                             731  c7                             458 
    x64       c5                             466  c6                             607 
    x64       c9                             407  c8                             311 
    x64       c1                             506  c0                             262 
    x64       c3                              98  Obj                            491 
    x64       c4                              40 
    x65       c4                             395  c8                             964 
    x65       Obj                            697  c2                             112 
    x65       c3                             836  c6                             538 
    x65       c5                             314  c7                             287 
    x65       c1                             469  c9                              58 
    x65       c0                             454 
    x66       Obj                            976  c2                             391 
    x66       c6                             855  c9                             603 
    x66       c3                             632  c1                             775 
    x66       c5                             893  c7                              29 
    x66       c0                             150  c4                             444 
    x66       c8                             524 
    x67       c8                             827  c3                             465 
    x67       c7                             309  c5                             183 
    x67       c2                             228  c9                             626 
    x67       Obj                            471  c1                             583 
    x67       c4                              99  c0                             514 
    x67       c6                             605 
    x68       c7                             820  Obj                            599 
    x68       c9                             973  c0                             169 
    x68       c1                             658  c2                             967 
    x68       c6                              49  c4                             540 
    x68       c5                             317  c8                             626 
    x68       c3                              79 
    x69       c7                             458  c3                             701 
    x69       c0                             186  c1                             330 
    x69       c4                             691  c8                             292 
    x69       c5                             469  c9                              61 
    x69       Obj                            763  c6                             428 
    x69       c2                             834 
    x70       c7                             415  c6                             332 
    x70       c3                             889  c5                             113 
    x70       c8                             935  c2                             297 
    x70       c9                             350  Obj                            863 
    x70       c4                             939  c0                              45 
    x70       c1                             938 
    x71       c4                             573  c8                             840 
    x71       c3                             230  c0                             140 
    x71       c1                             780  c7                             340 
    x71       c6                             348  Obj                            912 
    x71       c5                             488  c2                             371 
    x71       c9                             960 
    x72       c0                             400  c3                             430 
    x72       Obj                            942  c1                             174 
    x72       c8                              38  c7                             185 
    x72       c5                             614  c2                             154 
    x72       c6                             929  c4                             893 
    x72       c9                             849 
    x73       c7                             401  c2                             350 
    x73       Obj                            650  c9                             189 
    x73       c1                             841  c3                             338 
    x73       c5                             221  c8                             800 
    x73       c6                             202  c0                             957 
    x73       c4                             325 
    x74       c2                             738  c5                             321 
    x74       c7                             598  c6                              67 
    x74       c8                             564  c9                             192 
    x74       Obj                            710  c0                              99 
    x74       c3                             568  c4                              85 
    x74       c1                             378 
    x75       c6                              33  c7                             737 
    x75       c5                             688  c9                              49 
    x75       c8                             982  c2                             713 
    x75       Obj                            638  c4                             650 
    x75       c1                             104  c3                             371 
    x75       c0                             167 
    x76       Obj                            493  c5                             718 
    x76       c7                             246  c4                             553 
    x76       c2                             416  c6                             644 
    x76       c0                             454  c8                             587 
    x76       c9                             597  c3                             161 
    x76       c1                             106 
    x77       c1                             621  c5                             414 
    x77       c8                             326  c2                             647 
    x77       Obj                            540  c4                             722 
    x77       c3                             138  c9                             947 
    x77       c7                             716  c0                             391 
    x77       c6                             447 
    x78       c3                             540  c4                             874 
    x78       c8                             614  Obj                            818 
    x78       c6                             696  c2                             317 
    x78       c0                             805  c7                             767 
    x78       c9                             645  c1                             247 
    x78       c5                             726 
    x79       c5                             555  c9                             208 
    x79       c4                             106  c1                             429 
    x79       c8                             477  c0                             942 
    x79       c2                             664  c3                             833 
    x79       c6                             750  Obj                            872 
    x79       c7                             991 
    x80       c7                             503  c2                              94 
    x80       c6                             732  Obj                            803 
    x80       c5                             170  c9                              99 
    x80       c8                              99  c3                             569 
    x80       c0                             927  c4                             725 
    x80       c1                              82 
    x81       c3                             459  c8                             607 
    x81       c6                             337  c4                             324 
    x81       c0                             420  c9                             128 
    x81       Obj                            833  c1                             410 
    x81       c5                             200  c7                             816 
    x81       c2                             884 
    x82       c2                             972  c1                             297 
    x82       c0                             400  c8                             713 
    x82       c9                             773  c6                             601 
    x82       c3                             825  c7                             622 
    x82       c5                             749  c4                             978 
    x82       Obj                            906 
    x83       Obj                            774  c3                              50 
    x83       c8                             102  c5                             590 
    x83       c4                             145  c1                             748 
    x83       c2                             608  c7                             635 
    x83       c6                             242  c0                              81 
    x83       c9                             458 
    x84       c2                             743  c5                             321 
    x84       c4                             541  c7                             214 
    x84       c6                             805  Obj                            468 
    x84       c9                             612  c0                             315 
    x84       c1                             127  c8                             572 
    x84       c3                             172 
    x85       c0                             890  c5                             742 
    x85       c3                             486  c6                             641 
    x85       c7                             355  c8                             218 
    x85       Obj                            592  c9                             334 
    x85       c1                             162  c2                             592 
    x85       c4                              58 
    x86       c7                             929  Obj                            617 
    x86       c0                              35  c4                             390 
    x86       c1                             607  c3                             134 
    x86       c6                             646  c2                             581 
    x86       c8                             553  c9                             421 
    x86       c5                             506 
    x87       c0                             736  c7                             276 
    x87       c6                             442  Obj                            895 
    x87       c2                             479  c9                             454 
    x87       c5                              48  c1                             901 
    x87       c4                             641  c3                             171 
    x87       c8                             507 
    x88       c2                             739  c1                             922 
    x88       c4                             293  c6                             397 
    x88       c5                             845  Obj                            747 
    x88       c3                             298  c8                             222 
    x88       c9                             292  c0                             914 
    x88       c7                              93 
    x89       c1                             449  c9                             997 
    x89       c2                             698  c7                              50 
    x89       c0                             822  c8                              14 
    x89       Obj                            547  c5                             955 
    x89       c6                             389  c4                              29 
    x89       c3                             895 
    x90       c7                             189  c3                             898 
    x90       Obj                            670  c6                             397 
    x90       c0                             469  c8                             723 
    x90       c1                             198  c2                             233 
    x90       c4                             416  c9                             935 
    x90       c5                             232 
    x91       c5                             563  c6                             691 
    x91       c0                            1000  c4                             616 
    x91       c7                             395  c2                             594 
    x91       c9                             132  c8                             433 
    x91       Obj                            841  c1                             561 
    x91       c3                              32 
    x92       c0                              27  c4                             510 
    x92       c1                              28  c9                              28 
    x92       c8                              27  c6                             861 
    x92       c3                             383  c5                              25 
    x92       Obj                            394  c2                              60 
    x92       c7                             363 
    x93       c0                             294  c8                             953 
    x93       Obj                            586  c9                             671 
    x93       c4                             308  c1                              82 
    x93       c5                             463  c3                             845 
    x93       c6                             104  c7                             347 
    x93       c2                             677 
    x94       c0                             380  c9                             217 
    x94       Obj                            495  c4                             571 
    x94       c8                             268  c1                             350 
    x94       c6                             943  c7                             267 
    x94       c3                             532  c5                             254 
    x94       c2                             433 
    x95       Obj                            545  c1                             429 
    x95       c3                             746  c9                             245 
    x95       c4                             333  c0                             441 
    x95       c6                             107  c5                             202 
    x95       c8                             990  c2                             866 
    x95       c7                              66 
    x96       c8                              18  c3                             761 
    x96       c9                             877  c5                             454 
    x96       c4                             929  c0                             397 
    x96       c6                             850  c7                             392 
    x96       c2                             248  Obj                            711 
    x96       c1                             817 
    x97       c1                              77  c3                             421 
    x97       c4                             111  c9                              75 
    x97       c6                             244  c7                              57 
    x97       c0                             308  Obj                            411 
    x97       c2                             621  c8                             780 
    x97       c5                             188 
    x98       c6                             661  Obj                            562 
    x98       c2                             783  c9                             877 
    x98       c5                             961  c0                             354 
    x98       c7                             199  c4                             130 
    x98       c8                              35  c1                             267 
    x98       c3                             967 
    x99       c3                             369  c4                             257 
    x99       c5                             530  c2                              63 
    x99       c8                             402  Obj                            589 
    x99       c0                             893  c7                             350 
    x99       c6                             898  c1                             224 
    x99       c9                             118 
    INTEND    'MARKER'                            'INTEND'                           
RHS
    RHS       c0                           12013  c1                           11822 
    RHS       c2                           12357  c3                           12501 
    RHS       c4                           11832  c5                           12166 
    RHS       c6                           12680  c7                           11692 
    RHS       c8                           12793  c9                           11481 
BOUNDS
 BV Bound     x0                                 
 BV Bound     x1                                 
 BV Bound     x2                                 
 BV Bound     x3                                 
 BV Bound     x4                                 
 BV Bound     x5                                 
 BV Bound     x6                                 
 BV Bound     x7                                 
 BV Bound     x8                                 
 BV Bound     x9                                 
 BV Bound     x10                                
 BV Bound     x11                                
 BV Bound     x12                                
 BV Bound     x13                                
 BV Bound     x14                                
 BV Bound     x15                                
 BV Bound     x16                                
 BV Bound     x17                                
 BV Bound     x18                                
 BV Bound     x19                                
 BV Bound     x20                                
 BV Bound     x21                                
 BV Bound     x22                                
 BV Bound     x23                                
 BV Bound     x24                                
 BV Bound     x25                                
 BV Bound     x26                                
 BV Bound     x27                                
 BV Bound     x28                                
 BV Bound     x29                                
 BV Bound     x30                                
 BV Bound     x31                                
 BV Bound     x32                                
 BV Bound     x33                                
 BV Bound     x34                                
 BV Bound     x35                                
 BV Bound     x36                                
 BV Bound     x37                                
 BV Bound     x38                                
 BV Bound     x39                                
 BV Bound     x40                                
 BV Bound     x41                                
 BV Bound     x42                                
 BV Bound     x43                                
 BV Bound     x44                                
 BV Bound     x45                                
 BV Bound     x46                                
 BV Bound     x47                                
 BV Bound     x48                                
 BV Bound     x49                                
 BV Bound     x50                                
 BV Bound     x51                                
 BV Bound     x52                                
 BV Bound     x53                                
 BV Bound     x54                                
 BV Bound     x55                                
 BV Bound     x56                                
 BV Bound     x57                                
 BV Bound     x58                                
 BV Bound     x59                                
 BV Bound     x60                                
 BV Bound     x61                                
 BV Bound     x62                                
 BV Bound     x63                                
 BV Bound     x64                                
 BV Bound     x65                                
 BV Bound     x66                                
 BV Bound     x67                                
 BV Bound     x68                                
 BV Bound     x69                                
 BV Bound     x70                                
 BV Bound     x71                                
 BV Bound     x72                                
 BV Bound     x73                                
 BV Bound     x74                                
 BV Bound     x75                                
 BV Bound     x76                                
 BV Bound     x77                                
 BV Bound     x78                                
 BV Bound     x79                                
 BV Bound     x80                                
 BV Bound     x81                                
 BV Bound     x82                                
 BV Bound     x83                                
 BV Bound     x84                                
 BV Bound     x85                                
 BV Bound     x86                                
 BV Bound     x87                                
 BV Bound     x88                                
 BV Bound     x89                                
 BV Bound     x90                                
 BV Bound     x91                                
 BV Bound     x92                                
 BV Bound     x93                                
 BV Bound     x94                                
 BV Bound     x95                                
 BV Bound     x96                                
 BV Bound     x97                                
 BV Bound     x98                                
 BV Bound     x99                                
ENDATA